    3000

  H        44.4444550000       34.2299650000       48.0354540000
  H        44.4288890000       34.8671680000       29.7956720000
  H        46.3193210000       56.7279910000       47.1005360000
  H        44.7890510000       57.0838280000       27.7054050000
  H        46.1898060000       56.5578480000       38.9169190000
  H        44.5656540000       53.0009220000       60.6498310000
  H        42.1104840000       39.4686130000       38.7747650000
  H        45.3790030000       36.3323800000       62.7042460000
  H        43.6964860000       49.0761590000       40.9785710000
  H        42.4764930000       50.1532750000       27.2597180000
  H        45.5004060000       31.9271110000       48.5121130000
  H        43.3859800000       38.1859630000       54.5688780000
  H        46.2284040000       34.8771250000       35.8006080000
  H        42.8962320000       53.6465490000       53.8839290000
  H        44.7638840000       57.1741500000       35.7297110000
  H        46.3248680000       47.9285670000       34.7589310000
  H        42.7007460000       42.7701010000       55.1328100000
  H        46.4295670000       42.7081790000       35.4992490000
  H        45.5808410000       41.7301580000       57.0228610000
  H        43.5294290000       61.3119370000       41.1715330000
  H        42.9741820000       63.8581870000       39.7709500000
  H        43.3537050000       41.3477720000       44.2578590000
  H        44.6569140000       39.2862120000       28.0174630000
  H        44.1005770000       56.6081590000       49.0345030000
  H        43.2614280000       57.7100210000       35.5124270000
  H        43.9005510000       53.3422120000       54.9973320000
  H        46.4359980000       33.4352900000       35.1854800000
  H        43.9810780000       36.9330870000       55.4464570000
  H        41.5570840000       52.2713570000       52.5532890000
  H        42.7976290000       54.1954640000       31.1628470000
  H        44.1039470000       53.2733610000       44.5256040000
  H        41.9445680000       56.2366440000       30.7665400000
  H        41.5684510000       35.7786790000       50.1822410000
  H        43.4280040000       33.5032320000       31.8994990000
  H        43.8345380000       33.8629490000       51.6891330000
  H        44.6953690000       34.1560240000       36.6543270000
  H        45.4081820000       51.6274870000       36.6875860000
  H        45.2731610000       50.0282440000       58.2618600000
  H        46.1774930000       30.5970520000       38.8565120000
  H        44.7758540000       33.2667730000       58.8283750000
  H        48.6054510000       48.7819460000       37.7663270000
  H        45.5754460000       43.4669650000       63.4666690000
  H        44.8147670000       28.1352440000       43.7071670000
  H        45.3489870000       41.2526050000       40.5234000000
  H        43.0303900000       39.7667650000       63.8042820000
  H        45.6286530000       59.4856350000       47.2990550000
  H        45.5729730000       46.5671730000       34.6896180000
  H        43.6541930000       41.7840780000       55.6204590000
  H        42.9891800000       63.5437200000       38.2821620000
  H        46.2336180000       51.8004700000       43.2656030000
  H        44.6072310000       51.4144100000       27.3601560000
  H        45.4052880000       29.6111980000       51.5056580000
  H        43.1683220000       34.7889030000       47.4101450000
  H        42.9018980000       34.7200560000       29.8048370000
  H        45.4138060000       56.5371270000       45.8947130000
  H        45.1694440000       58.4764750000       28.2345440000
  H        45.6128290000       46.0212430000       48.8170880000
  H        45.1363190000       44.5963780000       33.9360900000
  H        44.5288170000       60.6677900000       53.9401050000
  H        45.2377110000       63.7285480000       36.6412250000
  H        47.7389640000       56.1057460000       38.6437010000
  H        44.4599810000       51.6481720000       61.4264870000
  H        45.8433340000       45.2027050000       40.4064520000
  H        45.1450280000       41.6991390000       27.6246730000
  H        43.5694640000       38.9065060000       38.6315340000
  H        45.0827900000       36.5505900000       61.1934290000
  H        45.2732170000       61.3172050000       45.7274600000
  H        46.5418070000       46.3077710000       45.4181530000
  H        44.9336360000       41.9892280000       29.8727350000
  H        46.1251800000       60.2242150000       50.7146350000
  H        42.5721040000       52.3934210000       46.7652900000
  H        44.0243240000       50.1764040000       29.1851660000
  H        44.8728970000       28.5039150000       53.8142580000
  H        46.7925080000       52.2407730000       36.8904690000
  H        44.9228620000       49.4178420000       59.6922140000
  H        45.4458910000       30.4279260000       40.2050360000
  H        45.7797050000       32.6160500000       59.9135100000
  H        46.3979950000       39.8380780000       36.0894220000
  H        46.8137510000       57.2865160000       44.1196970000
  H        46.6971730000       38.9481960000       37.3028940000
  H        46.9574480000       57.7170450000       42.6197480000
  H        42.2199090000       51.5295700000       51.2712690000
  H        44.0774560000       53.8065240000       30.2112030000
  H        46.6904210000       48.2581590000       45.3582710000
  H        46.8585120000       45.5145730000       29.3062240000
  H        40.4067970000       40.9873660000       52.3416110000
  H        43.7322820000       36.1756770000       32.9720290000
  H        45.2046170000       53.0970130000       52.7545780000
  H        44.0117280000       57.3787870000       31.0197590000
  H        45.7656350000       61.4125420000       52.4581120000
  H        43.2638870000       32.4707270000       52.2951710000
  H        45.2126920000       32.9241570000       37.2464330000
  H        46.2034630000       53.6732780000       40.8720420000
  H        45.4033540000       33.0223520000       41.3992020000
  H        42.4899980000       41.7533990000       34.6151390000
  H        45.9361530000       38.3238910000       58.7856800000
  H        44.3609800000       57.8001310000       40.9238270000
  H        45.4511200000       55.1901760000       56.7949400000
  H        46.6378230000       46.5825630000       40.8271810000
  H        44.5899790000       41.9368000000       26.1775820000
  H        44.9112610000       62.6484830000       46.0391900000
  H        44.0221350000       45.4645570000       42.3059260000
  H        41.5630310000       44.0019480000       26.6035480000
  H        44.4953580000       60.8324830000       49.1754950000
  H        43.7563030000       52.8359040000       52.0604490000
  H        43.5858430000       57.6871610000       29.5201610000
  H        41.2000840000       40.5478100000       51.0949600000
  H        43.5057630000       35.9358020000       31.4838840000
  H        47.4114370000       55.9363300000       34.4483610000
  H        45.2275570000       52.9208190000       56.5699470000
  H        49.0041650000       34.5833250000       37.8408760000
  H        44.6260590000       35.7588480000       56.8460450000
  H        44.8964430000       47.6594070000       32.0397880000
  H        45.2373010000       42.8268600000       36.5822970000
  H        46.5170850000       41.2340330000       58.2144890000
  H        44.7030600000       62.4967540000       41.6618000000
  H        45.8460320000       48.4275380000       42.0424790000
  H        43.9225830000       45.2233550000       26.5929750000
  H        46.4393480000       29.9764610000       47.9636400000
  H        45.4919650000       47.1646330000       42.5533290000
  H        44.0729450000       46.7356620000       26.6794150000
  H        45.5038500000       29.2457620000       47.0128630000
  H        46.2190140000       51.5934280000       38.8486560000
  H        45.9882710000       45.8953910000       64.1237550000
  H        44.1684810000       43.1412630000       40.5197460000
  H        46.3275340000       40.7830210000       60.1312130000
  H        45.7574270000       62.7636390000       43.7552840000
  H        45.2014020000       30.3051850000       43.5594160000
  H        45.0490880000       52.1734960000       46.7981200000
  H        48.4415530000       49.1295930000       28.9072770000
  H        46.7428820000       29.4306510000       54.9684030000
  H        44.0562720000       29.9539940000       34.9542740000
  H        46.9167980000       53.3590720000       31.8334910000
  H        45.5879300000       49.9825730000       53.8063420000
  H        46.7534280000       27.1850650000       39.3472720000
  H        45.0059190000       31.2254650000       56.1553060000
  H        43.8432610000       45.0600730000       47.6266210000
  H        44.4745990000       40.7987140000       33.4997870000
  H        47.0921530000       58.0265250000       53.6494080000
  H        45.6063180000       59.4080130000       35.1387720000
  H        46.3038010000       55.5748380000       26.7308680000
  H        43.4005200000       36.0057890000       44.7386240000
  H        45.3208270000       36.8912300000       28.7226800000
  H        43.9711460000       45.2764110000       33.1083970000
  H        45.6488390000       47.0559900000       49.9330520000
  H        45.4219490000       62.7122860000       37.7809220000
  H        44.9982240000       59.1407800000       53.8631850000
  H        47.1156150000       49.1457560000       37.7000250000
  H        46.4020160000       44.2623070000       62.5002960000
  H        46.2181750000       28.1335430000       42.9666800000
  H        45.6387990000       50.7737730000       40.0450190000
  H        47.0792600000       46.9434120000       64.3771580000
  H        45.2696470000       31.7216810000       43.3838420000
  H        47.6598450000       53.5709780000       53.0348290000
  H        46.2748380000       56.7890230000       31.1975120000
  H        45.0257990000       33.5803870000       53.8119140000
  H        47.5656320000       30.8603200000       36.8828000000
  H        46.3480750000       57.1714940000       34.1987390000
  H        46.0587830000       53.3406920000       55.2637500000
  H        49.4376120000       33.2785590000       36.8667890000
  H        45.3103960000       35.1947490000       55.4925090000
  H        46.7475110000       51.8100050000       41.7856370000
  H        45.7596860000       50.8673880000       28.3057180000
  H        46.7607990000       28.6741780000       51.4233890000
  H        48.4170350000       53.3697950000       35.6017760000
  H        47.1854340000       48.8169970000       58.6697560000
  H        45.9412820000       45.0980840000       45.9598150000
  H        45.7337890000       43.2290440000       29.3042420000
  H        47.4815540000       60.7593710000       51.0815170000
  H        47.8054240000       30.8005180000       40.9085320000
  H        45.4838190000       41.1086660000       47.1052460000
  H        48.4543020000       36.7548830000       33.7138330000
  H        46.5161620000       56.7429450000       50.1664400000
  H        48.7172530000       59.5375240000       33.0605160000
  H        45.5909280000       49.0151840000       32.3510740000
  H        46.3426090000       52.9982780000       46.7392500000
  H        47.3187670000       48.9223210000       29.9687420000
  H        47.5967610000       30.4791700000       55.8305350000
  H        45.0262630000       29.0606070000       34.2210290000
  H        47.3537320000       54.8983800000       46.0083710000
  H        45.1424430000       52.9116310000       28.5653760000
  H        47.6077640000       30.6431610000       52.0368960000
  H        45.2363090000       32.8255660000       33.3529590000
  H        48.0080720000       44.2317150000       34.0708310000
  H        47.7347370000       40.7723280000       56.2697300000
  H        45.5068660000       62.1587870000       39.8807390000
  H        48.5807760000       56.6052910000       57.8903230000
  H        46.9244960000       39.3371300000       45.7940120000
  H        47.1746290000       38.3631940000       30.3625840000
  H        47.8365420000       59.1043700000       48.8952160000
  H        45.8145960000       41.6614890000       48.4020470000
  H        47.6828830000       36.8626510000       32.3977290000
  H        47.9175040000       57.2875860000       50.3982110000
  H        47.2244640000       59.8621010000       32.6366530000
  H        43.2866610000       44.4490800000       40.3620650000
  H        47.2719900000       42.0341690000       60.2024280000
  H        46.7189500000       63.4294270000       42.6406140000
  H        46.1428280000       52.7294360000       49.0965530000
  H        49.7231600000       56.9369260000       28.0085170000
  H        46.9484080000       32.8817730000       50.8364830000
  H        47.7972440000       33.2782840000       33.0743800000
  H        47.3635370000       40.8974040000       38.4036490000
  H        48.3039540000       58.3588530000       45.6351580000
  H        45.7250190000       55.7731290000       32.2457850000
  H        46.7474470000       52.3630200000       53.4240080000
  H        46.0909720000       30.6774340000       36.5141890000
  H        45.4107280000       33.0578290000       55.3997550000
  H        50.1960770000       50.2917720000       40.7302460000
  H        47.7686640000       51.6782760000       27.1807010000
  H        46.5495580000       30.5113470000       49.8944590000
  H        45.7642940000       53.2226480000       50.5510130000
  H        48.7295260000       57.2318870000       29.2089320000
  H        46.0252090000       33.3460510000       51.7124570000
  H        47.7263190000       34.7885040000       33.0539860000
  H        47.8847280000       46.2738000000       35.6396590000
  H        48.1848710000       43.4862500000       57.7775130000
  H        48.4009830000       63.2915490000       38.9584850000
  H        47.9990470000       52.7709540000       30.8088120000
  H        46.8049350000       50.0178090000       54.7213310000
  H        46.9353220000       28.6454380000       39.7163620000
  H        45.4805300000       31.8848860000       57.5012370000
  H        50.0093330000       55.3947480000       37.2029630000
  H        46.3605960000       52.6373070000       61.7019700000
  H        47.4362600000       36.1919950000       38.8766880000
  H        47.4827060000       36.0561160000       60.9826840000
  H        47.8584320000       43.8450780000       32.6239240000
  H        48.3341910000       39.3372950000       56.0721040000
  H        46.8213790000       61.4866290000       39.5177390000
  H        47.0566050000       56.3487760000       57.5933970000
  H        51.0202990000       56.2497610000       39.8039880000
  H        48.1807830000       55.5814450000       27.2040380000
  H        46.3008150000       35.9701590000       43.9177000000
  H        44.8790720000       43.9185740000       47.5328300000
  H        45.0888460000       40.3562470000       32.1837770000
  H        46.2218480000       57.6086980000       52.5270990000
  H        46.9246390000       60.2431730000       35.1298300000
  H        47.9641020000       54.1537040000       44.8173010000
  H        44.8967040000       54.4686670000       28.2907900000
  H        47.8296280000       31.0663670000       53.5096460000
  H        45.6697730000       31.4905070000       34.1866750000
  H        48.6146850000       41.8768640000       37.3476010000
  H        47.2942790000       39.8849530000       62.4724930000
  H        46.6627090000       59.9026980000       45.1655810000
  H        48.1038510000       40.4007960000       33.9572900000
  H        47.6657100000       39.3132590000       59.4140600000
  H        46.3767970000       58.7633550000       40.8356620000
  H        49.0237720000       52.7047760000       38.7571910000
  H        48.5957950000       52.1184810000       63.0679890000
  H        44.4573580000       35.6826140000       42.5678920000
  H        47.9782630000       47.7963850000       43.4095060000
  H        48.3621750000       45.2004830000       25.5476010000
  H        47.7870010000       27.5718820000       48.1090500000
  H        51.5126880000       54.2143460000       36.0731980000
  H        48.1809180000       38.6039990000       35.3795080000
  H        46.5803780000       37.2845830000       56.0300210000
  H        51.7470810000       45.2464690000       40.6067590000
  H        47.3274960000       41.8838750000       26.9756830000
  H        46.9714730000       62.1880890000       46.4953000000
  H        46.5270570000       40.1063370000       33.8406030000
  H        48.3934800000       37.9929200000       59.0215430000
  H        47.6036100000       57.8364810000       40.3979430000
  H        49.3408880000       51.2333420000       39.0080030000
  H        49.2912260000       51.7463850000       64.3724840000
  H        45.4770900000       39.4807830000       45.3238180000
  H        48.6089080000       37.7419980000       30.7422560000
  H        47.4780340000       60.0222010000       47.6827890000
  H        43.8528000000       34.5481720000       41.8252170000
  H        49.2660970000       45.5474430000       35.4103280000
  H        47.6014990000       44.9125640000       57.4848470000
  H        49.8011330000       62.7661050000       39.1949390000
  H        48.5989090000       53.9525170000       34.2314750000
  H        48.3836620000       49.9755350000       58.9681430000
  H        49.0311540000       31.3990410000       41.7882810000
  H        48.3281330000       58.5963600000       31.2978920000
  H        47.9652050000       35.0056780000       51.0873240000
  H        50.7584920000       35.1224630000       36.8175510000
  H        48.3963870000       50.6683220000       36.4678730000
  H        49.4072380000       47.8865670000       58.7863550000
  H        48.2162710000       29.1353060000       42.7917500000
  H        48.6108150000       55.1774270000       36.7458230000
  H        47.6240660000       53.6055780000       61.4104540000
  H        47.8637210000       41.2818510000       36.1392570000
  H        47.8417020000       40.8204970000       63.5921650000
  H        48.6742910000       36.6761490000       37.8721170000
  H        47.9338720000       35.7946150000       59.4415400000
  H        47.7825900000       60.2017280000       44.1355390000
  H        51.2179960000       51.2549620000       41.2030150000
  H        49.1975210000       52.3504060000       27.5341070000
  H        47.9309680000       30.7181840000       49.1157740000
  H        47.0612750000       45.0851130000       38.5060190000
  H        47.2577220000       43.9554200000       59.8102590000
  H        48.5325230000       63.4503250000       41.4201280000
  H        46.0958030000       45.0225480000       52.8632260000
  H        48.1390420000       46.2926180000       33.1994960000
  H        44.3756360000       51.2086850000       43.8668220000
  H        48.3818820000       47.0111380000       27.7456790000
  H        47.7581020000       27.3132990000       50.6549510000
  H        51.1157430000       57.4160410000       40.5815140000
  H        47.8819890000       54.1192390000       26.7288050000
  H        51.4120420000       46.2185110000       32.3926110000
  H        48.9806080000       40.1219090000       53.9838900000
  H        48.4333700000       59.5677670000       39.5955240000
  H        48.2229220000       57.2988290000       55.5824030000
  H        47.2628750000       34.9345900000       44.4916820000
  H        46.5404680000       45.3898660000       51.3993110000
  H        47.0516730000       47.0684850000       32.3054830000
  H        46.8832370000       44.4451940000       37.0262080000
  H        48.2355490000       43.7433400000       60.9106570000
  H        48.7160270000       63.6050380000       42.9951100000
  H        48.7706520000       52.5137610000       32.8051200000
  H        48.0927040000       49.8359140000       52.7675820000
  H        49.7183140000       27.8142570000       39.6554420000
  H        48.7567100000       40.5019840000       39.1598520000
  H        48.5604570000       57.8817640000       47.0904510000
  H        44.7591600000       49.7233150000       44.2413220000
  H        49.8106860000       47.2242650000       28.3109600000
  H        48.1484650000       27.7424650000       52.1705700000
  H        51.6509260000       51.3230890000       36.1362970000
  H        47.9340670000       51.8579160000       60.1329790000
  H        48.4055270000       34.0205440000       40.6028230000
  H        47.6439720000       33.8113250000       60.6207160000
  H        48.3809060000       49.2643820000       44.0145660000
  H        48.3672510000       44.1654680000       26.7366400000
  H        49.3470830000       27.8152240000       48.2811630000
  H        47.7635650000       50.5968120000       40.4839440000
  H        50.4570610000       46.9197530000       62.0961850000
  H        47.9532860000       41.6717800000       49.7385150000
  H        48.7752480000       42.0845300000       33.2888990000
  H        50.8410440000       58.5160840000       52.2728540000
  H        48.3170270000       60.6737940000       37.3351840000
  H        47.7838900000       29.2241270000       46.1039950000
  H        51.7514440000       41.7614710000       40.3523060000
  H        48.6621230000       38.2737800000       28.1545370000
  H        48.0667410000       44.9468610000       46.9625530000
  H        48.3703280000       40.6884740000       30.0462940000
  H        49.6197270000       38.9253230000       37.8292030000
  H        48.6738840000       36.6900080000       57.0189610000
  H        49.7148570000       58.7750620000       37.7355000000
  H        49.4281320000       54.7675000000       59.9191800000
  H        49.8013460000       59.3155890000       49.6486390000
  H        46.1544400000       49.0237340000       47.2074420000
  H        48.4844980000       50.0645640000       31.5182780000
  H        49.6283100000       45.2964180000       46.7920550000
  H        47.1205490000       41.2472670000       30.5696940000
  H        49.2719780000       58.5766890000       50.8953770000
  H        49.1210930000       45.6694820000       43.2780600000
  H        49.3119260000       45.2160740000       30.0486250000
  H        51.3887470000       55.6040600000       35.3942540000
  H        49.4213600000       37.7505830000       35.5206530000
  H        47.7596360000       37.2281770000       55.0267670000
  H        50.7848380000       44.3563460000       41.0823410000
  H        48.7910740000       41.7650180000       27.4776500000
  H        48.4366200000       61.7687950000       46.9230490000
  H        51.7474200000       52.9346630000       42.8067630000
  H        49.4969470000       50.5180170000       26.1742420000
  H        48.6271690000       32.1432020000       46.5023700000
  H        46.2969530000       50.4672790000       47.6709700000
  H        49.3505780000       49.1594500000       32.3477040000
  H        48.6913710000       52.4904200000       54.5794680000
  H        48.7516960000       56.2571450000       31.6414260000
  H        47.4245340000       33.8210680000       55.0620050000
  H        51.0311440000       31.8101780000       35.8492350000
  H        46.6686290000       44.3326910000       42.7142850000
  H        49.6503020000       39.7534880000       28.7860120000
  H        50.1026450000       59.7470660000       45.8964780000
  H        49.0462470000       49.7100410000       48.9140060000
  H        51.6448410000       50.1295840000       29.1455380000
  H        48.7687500000       29.1750850000       53.7468770000
  H        47.4900170000       53.9086140000       42.9494800000
  H        48.8643700000       54.8523490000       29.5396350000
  H        51.8646990000       34.0259570000       49.3448660000
  H        49.2450460000       51.6971670000       35.5425350000
  H        50.1383280000       46.4219990000       58.5085460000
  H        48.9213060000       27.8826170000       43.1208070000
  H        52.8344810000       51.9266990000       42.4905250000
  H        49.8925450000       49.0546860000       26.4442020000
  H        49.1446690000       30.9242560000       45.7217860000
  H        48.7467540000       46.7794530000       39.4283320000
  H        50.2673430000       44.3501680000       61.4208580000
  H        49.4008820000       61.8460590000       44.6350700000
  H        48.4801220000       49.2518480000       40.2779710000
  H        49.8456920000       46.7542400000       60.7581250000
  H        50.9301770000       52.3955260000       37.1189990000
  H        48.9304100000       52.1970220000       58.9030210000
  H        49.7533190000       33.4473860000       40.7545730000
  H        47.9841540000       32.3775630000       60.3555910000
  H        48.6281220000       28.9925860000       44.8018930000
  H        49.0525640000       49.4417670000       34.8438520000
  H        48.6482550000       47.8627930000       52.9153430000
  H        49.6474180000       57.8541480000       30.6945720000
  H        49.3690000000       34.8656650000       51.7606500000
  H        52.0921980000       34.7814670000       36.0516470000
  H        49.4359880000       51.3153130000       33.3019300000
  H        48.6418810000       49.6053730000       51.2283070000
  H        49.8426230000       29.0298450000       40.6565800000
  H        47.9732120000       40.1676510000       49.3397010000
  H        48.7828240000       41.2139200000       31.9966250000
  H        50.2737040000       57.0484170000       52.5808680000
  H        48.8210640000       60.3994060000       35.8499440000
  H        49.3628170000       38.1081150000       48.8264430000
  H        51.0739380000       36.6502210000       35.0521500000
  H        49.8612240000       54.8178250000       53.3784380000
  H        48.5079710000       57.7703930000       34.7274410000
  H        50.5187630000       41.9380360000       41.2544310000
  H        49.9252560000       37.8346450000       28.8211430000
  H        50.0593780000       41.9962920000       35.7769280000
  H        48.3993900000       36.6069380000       52.5421140000
  H        53.6849170000       59.5884060000       37.1572970000
  H        52.2990300000       53.9046380000       55.2189020000
  H        50.7227870000       46.5354380000       33.6048640000
  H        49.9013320000       39.3814850000       52.8859890000
  H        49.7239400000       60.3765660000       39.1774340000
  H        48.9943680000       56.8818440000       54.3173470000
  H        47.6814020000       55.4375390000       43.0689210000
  H        49.9975000000       53.7922350000       29.4734240000
  H        51.8024370000       32.7642030000       48.2471680000
  H        48.8841930000       47.6980340000       49.1050120000
  H        50.7661120000       48.6536690000       30.8822250000
  H        51.2537630000       53.1740690000       39.5382200000
  H        49.8166130000       51.5661230000       60.7009840000
  H        49.5281850000       33.2062630000       42.6946630000
  H        51.1032090000       54.1991980000       40.6744830000
  H        50.5348180000       51.9980950000       62.1106820000
  H        49.6390660000       32.3556570000       44.1431300000
  H        50.3349820000       38.8769890000       39.1053910000
  H        49.8899110000       36.1478420000       58.0394680000
  H        50.7968750000       57.6703430000       37.5480780000
  H        50.0490830000       54.0722910000       61.2487000000
  H        48.4781940000       43.7101740000       41.1540940000
  H        50.3164210000       56.7477570000       45.3626640000
  H        50.8241740000       55.4865340000       42.8855910000
  H        49.4356250000       35.8164220000       41.7357400000
  H        50.1483400000       43.9678770000       38.9522670000
  H        49.8083940000       40.7335410000       62.3642640000
  H        52.9394760000       58.3482590000       43.5305660000
  H        50.3274030000       46.2224580000       42.4275450000
  H        48.3055310000       46.0901030000       30.8548830000
  H        48.9139680000       46.2598260000       38.1033170000
  H        50.5012840000       43.6454660000       60.1687220000
  H        49.7574830000       61.2002890000       43.3485530000
  H        50.0940630000       50.5399430000       47.1803360000
  H        52.7576060000       48.3771190000       28.2729330000
  H        47.7438890000       44.1981150000       43.7703120000
  H        50.4233110000       41.0095370000       29.5919200000
  H        50.7017390000       60.5489500000       46.9892970000
  H        50.5905010000       31.3710840000       49.7928520000
  H        50.2297260000       51.9590980000       54.7172590000
  H        49.1517420000       54.7893440000       31.4290580000
  H        49.4706680000       37.1409300000       50.1291150000
  H        51.0922580000       37.7375130000       34.0018740000
  H        51.0192670000       55.3815510000       54.2705190000
  H        49.8020130000       58.5434640000       35.3438650000
  H        48.9059200000       33.7714700000       54.5482230000
  H        49.6263590000       31.3536520000       35.2487510000
  H        47.4131820000       49.3753180000       48.8577330000
  H        51.8136300000       50.5491520000       30.6771180000
  H        50.1103720000       28.9560340000       52.8873120000
  H        51.4746110000       46.9704580000       37.8983310000
  H        49.9678160000       43.5709120000       56.4229530000
  H        51.0487600000       59.4482970000       42.8052730000
  H        50.6580450000       50.9175150000       43.9410890000
  H        52.6896340000       44.7447720000       27.1714070000
  H        49.9603790000       29.1345760000       47.0551580000
  H        53.6109950000       53.7184910000       33.3690090000
  H        49.7817270000       53.1964780000       56.8678150000
  H        51.0973160000       31.7187330000       39.4400810000
  H        48.5729240000       33.1928890000       57.0264060000
  H        53.5501390000       50.5375840000       32.7819620000
  H        50.1887700000       49.1506360000       53.7635660000
  H        51.2635010000       29.4216930000       38.9666220000
  H        50.8807540000       33.0327450000       57.8358780000
  H        49.6396650000       54.7384690000       42.4476280000
  H        49.1037940000       36.8560440000       42.8454260000
  H        50.6970220000       40.7741790000       36.5510490000
  H        47.8815300000       37.9230380000       53.0137940000
  H        52.0899410000       59.3620820000       37.0878670000
  H        52.5087110000       55.4770320000       55.4145410000
  H        49.4267910000       47.9829150000       35.0357000000
  H        47.9298450000       46.4439010000       52.9413850000
  H        51.2696470000       44.1438280000       35.4458170000
  H        50.8899680000       40.3596850000       59.2715140000
  H        48.9593180000       58.7953500000       42.3143380000
  H        50.0686840000       39.9415260000       47.6970950000
  H        50.3955810000       35.6349240000       32.8474370000
  H        50.1584960000       53.5823420000       48.5218460000
  H        52.1314900000       57.8771270000       30.8793640000
  H        48.6344540000       40.3973740000       47.8422480000
  H        49.6310580000       34.6767700000       31.9071480000
  H        50.1231700000       54.0142040000       50.0470690000
  H        51.8440390000       56.4733170000       30.4369910000
  H        48.5213570000       42.6445810000       40.0467340000
  H        51.6243250000       56.9683700000       44.6247410000
  H        53.3282970000       51.3694530000       34.0878600000
  H        49.8844640000       49.3617740000       55.2713280000
  H        51.3062830000       30.3749700000       37.6667270000
  H        51.4590670000       32.7791180000       59.2288900000
  H        51.4052180000       50.0360820000       26.9463830000
  H        50.9792720000       32.5473040000       46.2796680000
  H        53.6559130000       51.5210300000       38.9377700000
  H        52.3549870000       45.9870690000       60.1097680000
  H        47.9445790000       55.1107790000       51.4036110000
  H        50.7041970000       53.1541810000       32.4622400000
  H        50.1174830000       46.6123610000       44.7865110000
  H        51.9155370000       42.0336930000       31.2001200000
  H        51.5783300000       58.2465260000       48.7443490000
  H        49.1472490000       32.6908970000       52.5512140000
  H        52.5945140000       33.0515070000       34.6679880000
  H        51.0884170000       31.2697660000       42.8618790000
  H        48.6414600000       52.6485830000       46.8301470000
  H        52.1944860000       53.5963490000       29.4616740000
  H        51.0733540000       36.3599690000       49.0311540000
  H        52.4686870000       34.2316370000       32.5427150000
  H        51.3087010000       45.5817370000       35.9406000000
  H        52.1196270000       39.5949790000       59.5282750000
  H        49.6348510000       58.0180030000       43.4705440000
  H        53.1657820000       55.6143570000       37.3691310000
  H        52.1141250000       50.7977220000       60.7434200000
  H        52.1558580000       38.0826360000       40.9383070000
  H        51.5100680000       47.8191750000       36.5666850000
  H        49.7669530000       42.0383290000       56.6845650000
  H        52.1893660000       60.1703980000       42.0044620000
  H        50.6098700000       49.3735560000       43.7273680000
  H        52.4420060000       46.1101840000       27.8249820000
  H        50.6366200000       29.4683520000       48.5231270000
  H        49.3213540000       46.1862770000       48.8918310000
  H        51.4974410000       47.3565150000       30.3959930000
  H        53.5048800000       46.7681750000       43.7225200000
  H        51.3133130000       43.6156870000       30.2158870000
  H        54.5218620000       56.4655080000       37.2300430000
  H        53.0718730000       49.6284300000       60.8018970000
  H        50.8333470000       37.4733890000       41.2378500000
  H        50.6108460000       44.1172500000       37.4810820000
  H        50.5686010000       41.8244440000       61.6355600000
  H        53.0042460000       58.9227790000       44.9117230000
  H        53.2729050000       49.0007970000       36.0512290000
  H        49.9874240000       46.3210250000       55.8783840000
  H        50.9162790000       28.6389450000       42.9266660000
  H        54.6120110000       53.8768860000       34.4707040000
  H        50.6803530000       53.0473450000       58.2310730000
  H        50.9687810000       33.1169000000       38.8005880000
  H        48.9737970000       34.2079480000       58.0975370000
  H        51.4373580000       46.9876590000       52.1455590000
  H        53.0146140000       45.9533470000       34.5023640000
  H        47.5893000000       53.7410460000       50.8080500000
  H        52.0894140000       52.6126510000       32.5460130000
  H        50.5953790000       33.1769450000       52.6265340000
  H        53.0035610000       33.1943620000       36.1818210000
  H        49.8240250000       49.9251570000       45.7903820000
  H        53.7210580000       47.6780580000       29.2344120000
  H        50.5645550000       30.1633250000       50.8566540000
  H        52.4070650000       47.4318830000       44.6082870000
  H        51.5152830000       44.8784720000       29.2485200000
  H        53.6568030000       46.5694140000       37.4010990000
  H        51.6660040000       44.2034160000       58.2882290000
  H        50.4089990000       46.5052830000       53.3724410000
  H        54.3711490000       45.3348880000       34.9863070000
  H        50.5677990000       42.6040190000       51.9341190000
  H        50.8207120000       42.4612050000       32.7539690000
  H        50.7175900000       36.7367060000       52.9912810000
  H        51.1884480000       39.9347310000       33.6483720000
  H        50.3051000000       55.8020580000       33.2663180000
  H        50.3627110000       60.2228250000       55.1127920000
  H        53.1070550000       58.0810780000       40.2144660000
  H        52.0936900000       42.1706990000       38.5188970000
  H        50.3402230000       37.0286230000       61.5133250000
  H        50.0793570000       52.9574140000       46.4101560000
  H        51.2241410000       52.4272070000       29.3441850000
  H        52.0610080000       35.8742620000       48.0796210000
  H        53.5590030000       33.2498860000       32.2172450000
  H        50.4164770000       41.3002360000       52.6732020000
  H        51.2735530000       43.9127380000       32.7806480000
  H        49.6886900000       58.8281170000       54.7694730000
  H        51.1679850000       54.6269010000       44.9803010000
  H        54.3772410000       35.9573700000       47.5394380000
  H        53.0166760000       44.8612740000       31.1469500000
  H        52.9464910000       42.3708820000       34.3016530000
  H        52.1248190000       40.2352600000       57.1701500000
  H        52.0118340000       60.7396860000       38.6896410000
  H        52.9914030000       50.2809150000       36.8765080000
  H        48.8146450000       46.3823150000       54.8764190000
  H        50.8005150000       27.6468850000       41.8296590000
  H        52.7539360000       50.8067440000       27.3783360000
  H        52.1961810000       31.4382810000       46.1237170000
  H        52.9650200000       48.8731510000       42.5543000000
  H        52.1133980000       29.9075880000       44.9512150000
  H        50.7250500000       42.7082110000       49.5276310000
  H        50.3118190000       36.5494580000       31.1037300000
  H        52.7529840000       56.2154530000       48.6003410000
  H        50.3594530000       47.4159050000       46.0824320000
  H        52.8055400000       41.5542920000       29.9041950000
  H        52.3511710000       59.6808750000       48.6188100000
  H        51.7879150000       49.1218270000       41.7365710000
  H        52.3041930000       42.0881110000       35.6697630000
  H        52.4559750000       41.3093610000       56.1103290000
  H        52.6632380000       40.2589740000       43.6205640000
  H        53.7960740000       56.7690540000       46.6793000000
  H        51.7838260000       61.3802440000       40.1007360000
  H        51.7907780000       29.6764580000       46.5113830000
  H        52.0597020000       37.2270090000       52.1596080000
  H        52.3133380000       39.3674510000       32.7968940000
  H        50.3423770000       57.1791590000       33.9281260000
  H        50.8282240000       48.6604410000       51.2084420000
  H        52.6815550000       48.3862250000       31.9094160000
  H        52.0416930000       30.9456170000       52.3337210000
  H        52.1870280000       50.9288130000       39.1876110000
  H        51.8649650000       47.4381450000       59.8027220000
  H        52.4126970000       30.5607820000       42.5653980000
  H        53.5792520000       45.4695760000       32.5188000000
  H        53.3273240000       44.6963190000       44.0144030000
  H        52.2446390000       60.9497130000       45.5687960000
  H        55.2665040000       51.3721080000       36.3303790000
  H        51.8953200000       47.6678410000       55.3662740000
  H        53.6180500000       30.6443100000       38.6053800000
  H        49.4479750000       43.3075310000       48.6578240000
  H        50.7876560000       38.0763220000       31.3297850000
  H        51.3437400000       55.7169190000       49.0786380000
  H        54.9830980000       45.9745980000       37.8053130000
  H        52.6714200000       43.6307690000       59.3479840000
  H        54.8029570000       51.7393840000       43.5178100000
  H        52.3553010000       33.8727990000       43.3542250000
  H        53.4307410000       44.4108750000       42.4819380000
  H        53.2577820000       60.2331870000       46.5740010000
  H        57.3083540000       40.8759970000       39.5848110000
  H        51.9558100000       39.9467490000       61.6041880000
  H        51.7032760000       40.6784240000       38.4899190000
  H        51.2793630000       36.4954940000       60.3922660000
  H        53.8397880000       56.8645630000       40.8843830000
  H        54.9167300000       58.0415440000       44.0960300000
  H        54.6182020000       43.7244810000       35.7910230000
  H        53.1560370000       41.5547870000       59.0128970000
  H        51.8619910000       53.2006860000       45.1415840000
  H        50.8983770000       39.7255110000       46.1244900000
  H        54.2909480000       36.4070270000       46.0776570000
  H        51.7578660000       38.9121830000       47.0524920000
  H        50.6724490000       47.5613540000       50.1325180000
  H        54.1720950000       48.7323570000       31.6408410000
  H        52.5380260000       38.0144200000       54.5805460000
  H        53.9282660000       39.3715660000       34.7194510000
  H        53.6608000000       57.7857970000       55.5531510000
  H        56.8895230000       57.5320160000       34.2098920000
  H        52.4544480000       29.5308280000       51.6885260000
  H        56.2065470000       40.7959180000       38.4655790000
  H        52.3470480000       38.4604140000       61.4779710000
  H        55.6243080000       56.9550100000       43.2307040000
  H        58.0128470000       53.6436070000       37.0882440000
  H        52.9228430000       51.0715650000       55.6250100000
  H        53.5372570000       34.1124660000       37.9480630000
  H        53.5251170000       34.6254680000       56.5159020000
  H        56.7261630000       49.0806840000       38.5824170000
  H        54.8289850000       50.0897330000       44.4573600000
  H        55.3038910000       50.7919750000       42.3773450000
  H        52.5922480000       33.2419390000       44.8032760000
  H        55.3824390000       31.1769140000       45.8855490000
  H        57.5278620000       52.3332730000       36.3315000000
  H        52.1867900000       50.2190820000       54.5812570000
  H        54.2448370000       32.6365990000       38.0264670000
  H        53.0952580000       33.1108090000       56.5838700000
  H        53.2977820000       52.8948150000       36.2266540000
  H        53.8626310000       50.8010710000       57.4483320000
  H        52.2952780000       35.7779290000       37.8558090000
  H        52.2517670000       36.1986030000       58.3003240000
  H        53.7122150000       50.6119590000       49.6260400000
  H        54.0992070000       51.9547390000       31.2431510000
  H        52.5747880000       32.4289930000       51.1751260000
  H        55.8227900000       50.1083910000       37.0665150000
  H        52.8338580000       46.4148870000       55.3533250000
  H        52.2577900000       53.1202790000       49.2170180000
  H        52.3243690000       54.6359200000       31.3196900000
  H        52.2055610000       40.7406150000       42.1634120000
  H        54.9845780000       56.3596290000       47.5819200000
  H        53.3577090000       32.0635350000       49.2850990000
  H        54.6804630000       31.0068460000       39.5772660000
  H        52.9189190000       45.4186770000       52.9942940000
  H        55.4503820000       47.2323620000       33.9968220000
  H        54.2771120000       53.9624960000       36.5222030000
  H        52.8716450000       51.1552330000       58.5442280000
  H        52.5936360000       36.3908480000       39.4059880000
  H        51.5584780000       34.8611750000       58.4738400000
  H        56.0946140000       44.4748220000       35.8019170000
  H        54.1789430000       42.0318650000       60.1260810000
  H        54.3848550000       53.0359170000       50.3837170000
  H        52.8861940000       57.0575040000       33.2204530000
  H        53.0659450000       38.1014260000       50.9433130000
  H        54.7359760000       35.3665550000       34.4514310000
  H        54.1011740000       52.5885850000       45.2877980000
  H        54.1930960000       34.9740680000       44.4518410000
  H        52.4578590000       44.3373460000       39.3599370000
  H        53.7077580000       46.3524660000       46.1142330000
  H        54.8987430000       42.0525390000       29.9366510000
  H        54.1471010000       58.7437330000       47.8169570000
  H        55.2857030000       39.1576410000       39.6603920000
  H        53.5921520000       36.9874960000       56.5191930000
  H        55.4747100000       58.3599380000       35.9949210000
  H        53.5542170000       50.6429210000       45.9519260000
  H        55.1110870000       49.8769190000       29.9444170000
  H        53.9757590000       29.8239290000       49.8866660000
  H        53.4162240000       43.3858920000       49.4668780000
  H        54.1410140000       40.8572140000       32.4156370000
  H        53.4933650000       57.0787990000       50.5660530000
  H        55.7241370000       42.8833440000       39.6858300000
  H        54.0418870000       40.5691190000       61.9902580000
  H        55.8610310000       60.2796580000       43.8603420000
  H        44.9390080000       55.7239080000       25.9274370000
  H        44.3410970000       35.7734030000       45.9604130000
  H        46.2720640000       36.3588940000       29.8284660000
  H        42.4972940000       38.1682910000       33.8417420000
  H        42.0917220000       39.8538600000       56.6912190000
  H        43.8284790000       61.8599660000       36.0789310000
  H        43.9421340000       58.4411180000       55.7850170000
  H        45.3404870000       47.6686920000       45.9609390000
  H        45.7167010000       45.8511500000       28.2412210000
  H        45.2126920000       62.7358210000       53.2753650000
  H        43.2680770000       40.1433290000       43.2140370000
  H        45.5985750000       38.8730280000       26.9668070000
  H        44.9587450000       55.3225020000       49.0397700000
  H        45.7395640000       48.8790060000       39.7804640000
  H        43.4551140000       42.5371350000       62.7268830000
  H        44.2421940000       26.9159340000       45.9057340000
  H        45.4847070000       53.9927480000       45.0133820000
  H        40.4224250000       56.1414670000       30.6148990000
  H        43.1781470000       46.8234840000       42.4401960000
  H        42.5621990000       43.7312640000       27.7143320000
  H        45.5780990000       61.8144380000       48.7189810000
  H        43.0675030000       35.6165650000       49.7415290000
  H        42.9500710000       32.1699480000       32.6047480000
  H        43.0162060000       49.2204770000       53.5212150000
  H        44.5066250000       50.8618550000       32.0925690000
  H        42.8820810000       31.4268430000       54.8043710000
  H        43.4675110000       28.6023840000       37.8817260000
  H        43.8904030000       40.5090470000       40.2759010000
  H        44.3885950000       39.3583400000       63.0012080000
  H        44.8523000000       58.8526020000       46.0646370000
  H        42.8622800000       52.0102340000       39.5547240000
  H        45.0847090000       48.0960370000       63.4355850000
  H        44.0820140000       31.7747650000       45.1650400000
  H        46.5843660000       55.1525600000       40.2297710000
  H        44.0410530000       32.4205600000       41.4103270000
  H        42.6882490000       42.0146940000       37.4174530000
  H        44.5829510000       39.4455960000       60.2521500000
  H        41.0668460000       59.7785060000       42.2255440000
  H        43.6220530000       41.2159540000       35.6209090000
  H        45.1636490000       39.3734240000       57.7668970000
  H        44.1559540000       59.0285510000       39.9835810000
  H        44.8070070000       56.6892990000       57.1096220000
  H        42.6817780000       39.4337370000       34.7585180000
  H        43.4498500000       39.0633800000       56.3126260000
  H        43.2085100000       60.4020280000       36.3468950000
  H        42.8655750000       57.2574900000       55.8741110000
  H        42.0869620000       51.0585110000       47.3741350000
  H        44.7765500000       49.0513000000       30.1296640000
  H        44.4673470000       29.4169510000       55.0136550000
  H        40.6963450000       46.3989540000       47.3847600000
  H        42.8772900000       46.2924470000       30.6062250000
  H        44.5787160000       50.0472970000       41.9151750000
  H        42.0755810000       51.7505580000       27.4293160000
  H        44.3240930000       32.0818790000       47.4570260000
  H        43.0938810000       45.6634360000       44.9199860000
  H        40.9315230000       47.1470260000       29.4087640000
  H        45.1784070000       27.2693000000       50.5771850000
  H        46.8070000000       50.7300040000       32.9276190000
  H        44.3311860000       48.1014910000       58.1770260000
  H        44.0520770000       28.1662280000       41.6331580000
  H        45.7274650000       36.7909160000       34.3362190000
  H        44.0755950000       37.5117230000       59.0956380000
  H        43.7597790000       55.7426210000       38.2606340000
  H        44.5761520000       54.7026450000       58.6880580000
  H        41.0398820000       35.8418370000       47.7456740000
  H        44.5672840000       38.2503000000       31.6850900000
  H        43.9774310000       55.2030660000       52.1684080000
  H        42.5564800000       58.9969600000       31.3703140000
  H        42.0058280000       46.8828160000       46.8450680000
  H        44.3429910000       45.6651560000       30.9389080000
  H        45.4808550000       53.6970250000       36.3164190000
  H        43.2081000000       49.6353020000       60.4611240000
  H        41.7845980000       32.8654450000       41.5042510000
  H        44.7847890000       53.9686090000       32.2897940000
  H        44.3842920000       52.2060910000       58.3070280000
  H        45.2261310000       35.7071930000       40.2424360000
  H        43.8447110000       35.5404410000       58.8150200000
  H        43.8146680000       41.0939250000       37.9043860000
  H        44.3380850000       40.6998720000       61.0654880000
  H        41.6856280000       60.8902700000       42.8706860000
  H        42.9126550000       44.3853650000       45.9018940000
  H        41.7234970000       48.0496770000       30.4241290000
  H        44.2838940000       26.0993090000       50.4505240000
  H        45.9614790000       47.7450170000       38.7223470000
  H        44.4072680000       41.4398560000       63.2366560000
  H        43.6944500000       28.3765920000       45.5546520000
  H        43.5755420000       49.1645120000       46.0263690000
  H        43.5619480000       48.5255190000       27.9056960000
  H        43.0422640000       29.4910470000       52.6439000000
  H        41.1443590000       43.4486020000       33.3339050000
  H        43.4387840000       41.2276880000       58.6383180000
  H        43.9099030000       60.8164490000       38.5910060000
  H        43.4604280000       57.3725160000       58.7087680000
  H        43.6530830000       52.0218460000       31.3907320000
  H        43.1452490000       50.6738340000       53.2200110000
  H        43.4114790000       27.9614580000       39.3207430000
  H        42.6666030000       30.4852570000       55.9658150000
  H        40.5837250000       50.7739040000       41.7559710000
  H        39.6199670000       46.2636760000       27.7686350000
  H        43.3021550000       30.5194680000       46.1475940000
  H        45.5228050000       54.1053760000       33.6796020000
  H        43.9222030000       51.2354040000       57.2294230000
  H        45.3714520000       34.8185510000       38.9224670000
  H        43.0699950000       34.5778660000       57.7706160000
  H        37.9160810000       43.1921130000       42.8576770000
  H        43.2225320000       40.5342890000       27.4217310000
  H        42.8201400000       58.7574180000       46.1202840000
  H        42.3415830000       48.7637510000       36.5120880000
  H        44.7137080000       44.2051510000       57.5934040000
  H        40.6388720000       26.0064210000       41.8147750000
  H        41.4026340000       44.5476290000       48.2661830000
  H        41.3259310000       44.0207280000       30.0956900000
  H        42.9512140000       57.6325430000       52.3539930000
  H        41.6783340000       60.7212020000       33.3564970000
  H        39.4043460000       37.8545380000       46.5688020000
  H        41.6338930000       36.0792720000       32.9096290000
  H        40.8078450000       55.1882640000       49.2380100000
  H        40.2775150000       61.5749700000       31.2554730000
  H        44.7139240000       56.7647560000       42.7935010000
  H        42.3491420000       42.2888170000       45.9565400000
  H        42.7741340000       42.3714360000       30.2925540000
  H        40.0070140000       36.0930660000       42.6656800000
  H        44.1135270000       59.0595370000       51.0309820000
  H        43.9460240000       42.3333880000       46.0949900000
  H        42.6482410000       40.8904090000       29.6426950000
  H        44.1821320000       58.8953290000       49.5759910000
  H        44.0618690000       45.9246410000       38.0784610000
  H        40.9965680000       45.6747070000       62.8779730000
  H        41.8879560000       26.2265720000       45.0261630000
  H        41.2606100000       50.3330180000       49.6464270000
  H        43.1647680000       49.2203380000       32.7723320000
  H        41.4679620000       27.7200340000       55.1080300000
  H        41.5646580000       28.4158670000       37.8935360000
  H        42.9089010000       48.3196550000       45.0269680000
  H        42.4823180000       47.5229000000       27.8799720000
  H        43.5477400000       28.4744930000       51.5302230000
  H        38.9035260000       52.8697370000       52.6586150000
  H        40.9343180000       57.6347470000       34.3825440000
  H        41.9849620000       34.0081340000       53.8015450000
  H        41.2946020000       32.3920390000       34.7421940000
  H        42.4371870000       44.2982180000       49.4957990000
  H        42.8482660000       44.3515250000       30.2177950000
  H        43.4221230000       59.1411920000       52.8709620000
  H        42.1505810000       61.3310150000       34.6662600000
  H        46.0940170000       54.9595320000       35.9453140000
  H        44.1005600000       49.4211720000       61.7417410000
  H        42.3696270000       33.4323110000       40.1629380000
  H        42.6499990000       53.1420510000       38.5944680000
  H        43.5902640000       47.6343080000       62.9836900000
  H        42.6317960000       32.4907340000       45.4880960000
  H        45.7765020000       50.4871920000       34.1720100000
  H        44.0306440000       46.7889590000       57.5855610000
  H        42.6006510000       27.7488040000       41.0985800000
  H        42.3693810000       42.7772020000       32.8002630000
  H        43.5726750000       42.6198590000       59.2752790000
  H        42.4347290000       60.3769590000       38.8411890000
  H        43.1716490000       56.3629370000       59.7644000000
  H        42.0307700000       36.8432280000       35.6860850000
  H        41.6337120000       36.8303270000       54.9513370000
  H        39.6822020000       54.4758320000       37.0139540000
  H        42.0747700000       55.0166380000       55.2744220000
  H        44.0775920000       57.0902050000       37.7528490000
  H        43.1962210000       54.0862080000       59.0726960000
  H        44.2908690000       37.1944270000       34.8923920000
  H        43.1422610000       37.0479730000       60.3004480000
  H        40.8630960000       36.2550820000       46.3533480000
  H        43.7982100000       39.0198140000       30.5546630000
  H        42.6526020000       55.6138100000       51.5370260000
  H        42.0024540000       58.9039610000       32.9101050000
  H        42.6887910000       52.9319190000       43.1515360000
  H        41.9589090000       53.5871160000       28.7521970000
  H        43.1261950000       32.2668540000       49.3389650000
  H        41.4416750000       30.5368340000       31.6992710000
  H        38.1058420000       44.4707710000       43.6195630000
  H        41.8355580000       41.1212050000       27.8354480000
  H        42.3860960000       60.1796060000       46.6887310000
  H        40.2531100000       43.2097300000       43.9013560000
  H        42.0863340000       38.9648060000       28.8552360000
  H        42.2196730000       58.0255130000       48.2096830000
  H        43.4206220000       47.6844780000       36.2720990000
  H        43.5939560000       43.7673520000       56.5914980000
  H        41.0844660000       26.5771700000       43.2122660000
  H        42.0531950000       51.3703900000       41.6643760000
  H        38.7366820000       47.2553730000       28.6620870000
  H        43.0693380000       29.3439320000       47.3379550000
  H        42.5390830000       52.1592060000       55.5895910000
  H        43.0221780000       53.1502480000       35.8640330000
  H        41.7993640000       33.6504800000       56.0895760000
  H        43.6362550000       31.1707080000       37.4950110000
  H        38.7959470000       38.9432980000       47.6822260000
  H        40.1742270000       35.8974860000       33.6641400000
  H        40.9480490000       54.1206040000       50.4094810000
  H        40.7756700000       60.1375400000       31.3749490000
  H        38.7636570000       47.1167100000       47.9892990000
  H        40.4976140000       45.6563480000       31.4192000000
  H        43.0320290000       63.0507960000       50.7299440000
  H        40.0211020000       49.4279590000       48.5151190000
  H        41.0285170000       53.7635600000       33.6130690000
  H        38.0964190000       46.1581580000       46.8496790000
  H        39.5213790000       44.6536260000       31.7831120000
  H        42.0743480000       62.0900400000       51.4649230000
  H        42.0036580000       31.4710280000       51.3634030000
  H        42.3430340000       30.6138530000       35.2923310000
  H        40.6272780000       50.0420640000       34.5052960000
  H        38.1133580000       48.3798570000       54.6790350000
  H        43.8039110000       55.4575790000       45.8800480000
  H        39.5147980000       58.8595630000       29.8190840000
  H        39.3666020000       37.0320520000       49.1384740000
  H        40.1995830000       34.1539950000       32.8589890000
  H        41.4308970000       44.9049230000       40.1360730000
  H        41.1656030000       43.3984140000       63.0057270000
  H        41.8930550000       61.7343640000       45.2897850000
  H        41.6308980000       43.8042720000       44.5867460000
  H        41.5401990000       38.0023960000       29.9534080000
  H        42.1763310000       57.7724240000       49.7510720000
  H        41.9492780000       54.5823120000       36.8284270000
  H        42.6312590000       47.8574950000       59.1379470000
  H        41.6722810000       52.3824870000       35.7127670000
  H        42.6931660000       50.5999010000       55.6914220000
  H        39.8332070000       54.1306710000       53.0203780000
  H        41.3644580000       59.0887690000       34.7072860000
  H        40.7015040000       34.4442620000       54.4955680000
  H        40.7147960000       32.6574060000       36.1278240000
  H        43.1782440000       30.2351240000       38.5900090000
  H        41.2187620000       33.0920930000       57.4305860000
  H        40.4150110000       30.8282570000       41.9353350000
  H        42.3701390000       33.8452690000       60.2259570000
  H        40.4171120000       47.7166790000       34.2037650000
  H        40.3775010000       43.2194050000       54.1209610000
  H        41.4975580000       62.4052340000       39.3651990000
  H        41.6037700000       47.7696900000       41.2003770000
  H        38.5491450000       44.4711580000       26.8058740000
  H        43.2949100000       62.0168030000       47.3880240000
  H        45.2932690000       55.4367090000       42.0898270000
  H        38.9392960000       37.1306850000       42.8747220000
  H        39.1353030000       49.9243100000       34.4998120000
  H        39.7756000000       48.4095610000       54.8179640000
  H        42.1353240000       52.4611690000       44.6962290000
  H        40.5087120000       53.5678340000       29.0649620000
  H        42.2212910000       33.4052950000       49.8377660000
  H        40.9410250000       31.8438450000       32.4919250000
  H        44.9991970000       46.5493080000       36.9629770000
  H        39.6049850000       44.9549790000       62.9525400000
  H        41.0375950000       43.9526870000       42.3421570000
  H        40.4936310000       39.6571560000       63.5642030000
  H        40.7990700000       58.7998210000       45.9073730000
  H        40.5865960000       27.0806220000       44.9471330000
  H        42.6196230000       50.7128960000       49.2112270000
  H        42.9914490000       48.6134830000       34.1594870000
  H        40.6833960000       29.0067870000       55.0320210000
  H        40.8709520000       29.0126520000       36.6640440000
  H        41.1736360000       39.5225130000       45.8151230000
  H        40.1329610000       36.6762640000       31.2827560000
  H        39.5688400000       55.4949620000       46.9519010000
  H        40.9012590000       48.5208900000       47.4970780000
  H        41.0821130000       54.4829450000       32.1378670000
  H        41.3745520000       31.3633930000       52.8098630000
  H        41.8349730000       29.4868710000       34.2126940000
  H        43.8736590000       51.2401090000       35.1285240000
  H        41.6597890000       47.4594800000       61.4640260000
  H        40.6188910000       32.1321400000       44.0206610000
  H        40.3992580000       37.1470790000       54.1075380000
  H        42.9711620000       35.5761410000       35.5036860000
  H        40.8290720000       55.9678560000       54.7580000000
  H        39.9777250000       55.3107930000       35.7062610000
  H        41.4119080000       50.4626640000       43.6842760000
  H        39.6155610000       49.6200620000       28.1306010000
  H        40.9383490000       31.0376440000       48.8709610000
  H        41.3897000000       43.1704560000       41.1837700000
  H        41.2062700000       40.9249180000       63.1068710000
  H        39.6785040000       59.2362090000       44.8873060000
  H        43.3344700000       54.8908430000       42.3918600000
  H        38.5236620000       34.2581070000       46.1894540000
  H        44.1559090000       49.7940490000       35.7228480000
  H        40.8411000000       47.9417050000       62.6386140000
  H        40.0410410000       31.0357730000       44.9401040000
  H        40.5075230000       41.3294480000       36.9180740000
  H        40.0785880000       38.6532690000       57.1829000000
  H        40.5079020000       58.3134710000       38.3885920000
  H        40.4818200000       55.2959380000       56.6039160000
  H        38.6574390000       42.7131120000       52.0126850000
  H        41.6008950000       40.6704700000       31.5546880000
  H        40.5167060000       59.6563290000       53.9614150000
  H        39.5278580000       61.9406590000       35.1460040000
  H        41.5902410000       35.1238410000       41.2727890000
  H        43.1935400000       59.3862780000       43.9599010000
  H        40.6902830000       53.4888390000       42.5952740000
  H        38.8837150000       32.9050150000       45.5669950000
  H        43.6579200000       54.6808500000       36.6553420000
  H        41.2268790000       48.3282980000       59.3953890000
  H        39.8400130000       32.2005100000       42.3393000000
  H        42.9606030000       32.5001400000       59.9803520000
  H        41.4099820000       36.7087380000       40.9557100000
  H        42.2911110000       58.2467780000       43.5982730000
  H        44.8296040000       37.0736560000       38.3798580000
  H        41.2825010000       38.1780060000       60.6295830000
  H        40.3334990000       56.1036780000       39.7197490000
  H        40.8490560000       54.6945020000       58.8805130000
  H        37.1819030000       54.0823460000       37.0964940000
  H        39.9744930000       51.2784390000       56.4782420000
  H        41.5383080000       32.5685600000       38.6643650000
  H        40.4762880000       34.7532010000       58.9784810000
  H        39.9667100000       45.0618020000       34.7323370000
  H        39.8352900000       42.3178140000       56.2238010000
  H        39.6779840000       61.4225860000       38.6168460000
  H        41.0329520000       57.8547190000       58.9847050000
  H        42.7959810000       56.6983160000       45.7147350000
  H        39.4776630000       57.7474530000       28.8448620000
  H        38.9157310000       36.3865750000       50.3828510000
  H        39.3670050000       33.2224970000       33.7288010000
  H        41.1710890000       42.8260490000       36.8437900000
  H        39.7724290000       40.3790750000       57.1824350000
  H        39.4253660000       59.2737080000       37.7382550000
  H        39.0630060000       55.2707640000       57.4076400000
  H        41.5775640000       46.7675460000       34.5031750000
  H        40.3055680000       44.3453860000       55.1852270000
  H        38.4802490000       41.2202610000       46.8871580000
  H        38.2452300000       40.0731510000       34.1023900000
  H        40.0982450000       56.1425760000       50.8332580000
  H        38.5235740000       59.9548470000       31.7360400000
  H        41.1970340000       61.2048450000       40.3847020000
  H        42.4248670000       46.7821260000       40.3665910000
  H        38.9799890000       43.8026610000       28.1343640000
  H        41.7460120000       62.1161000000       47.7441010000
  H        41.5523100000       45.2722180000       38.5744260000
  H        41.3263420000       42.6437760000       61.6531290000
  H        40.6893600000       61.2261150000       44.4301550000
  H        37.5615560000       55.2975320000       38.0836240000
  H        39.6755630000       52.8140820000       56.3444770000
  H        42.7184800000       33.4553640000       38.0675650000
  H        40.5225640000       36.0620330000       59.8533310000
  H        36.4290580000       46.1558480000       43.1653060000
  H        38.8445400000       42.7261860000       30.6435330000
  H        40.6813490000       62.6027680000       49.4843290000
  H        38.6460390000       41.5679980000       53.0785290000
  H        41.0295870000       39.2172280000       31.4620780000
  H        40.5405940000       59.0266410000       55.3685400000
  H        38.8498970000       61.9101830000       36.5122030000
  H        40.5515040000       49.3508460000       44.4170210000
  H        39.6669880000       51.1406450000       28.3696010000
  H        39.3964220000       30.9937290000       48.3093010000
  H        41.3247320000       40.5366930000       44.7465320000
  H        38.9935540000       37.1840830000       30.4422320000
  H        40.5028770000       54.3094430000       47.1468610000
  H        40.7156180000       52.0760140000       32.7242880000
  H        41.3289260000       50.1996780000       54.2900620000
  H        40.8650610000       30.2688960000       38.4361700000
  H        39.1906840000       30.9087800000       56.8236850000
  H        36.5229740000       44.9832830000       47.6307320000
  H        39.2590860000       42.4307100000       33.6852170000
  H        41.5927500000       59.5924410000       51.9159860000
  H        39.5504570000       56.3028120000       52.7275910000
  H        38.4967450000       56.5004240000       33.9744080000
  H        38.7989010000       37.7516730000       52.4726660000
  H        38.1884110000       35.5728140000       34.4213190000
  H        41.7162400000       55.3946580000       39.7165690000
  H        41.4119870000       55.0671070000       60.2171500000
  H        39.7841720000       37.9432670000       38.4917490000
  H        41.8258030000       40.3427780000       59.7927020000
  H        43.4237150000       36.9494160000       37.8593920000
  H        40.7574400000       37.1685000000       61.7640360000
  H        41.3299340000       56.8821520000       41.6485760000
  H        39.5914910000       53.0626030000       41.5115500000
  H        39.1610220000       50.0572820000       31.4546110000
  H        37.4386820000       33.8333790000       49.9801880000
  H        36.9259570000       43.9270210000       46.4233950000
  H        39.7680700000       41.2578540000       32.6097090000
  H        40.1737560000       60.2266350000       51.4326340000
  H        40.0247420000       38.7014670000       52.4897010000
  H        38.9480260000       36.7233770000       35.2903920000
  H        38.7143130000       55.8164740000       53.9485240000
  H        38.8757920000       57.5771900000       35.0710260000
  H        40.7187580000       51.1546000000       37.5695290000
  H        38.3444530000       45.7892380000       61.2429340000
  H        39.7098390000       29.1812470000       43.8766220000
  H        40.1516430000       46.3160220000       36.7678490000
  H        39.0041430000       43.7372130000       59.6481990000
  H        38.4343300000       60.9888030000       43.1021900000
  H        35.8035200000       47.3349780000       50.0278620000
  H        38.2444450000       46.9088820000       31.5228220000
  H        36.8034210000       54.0538580000       43.0053970000
  H        37.7549660000       41.6206620000       40.9180340000
  H        38.2967280000       38.5753260000       40.2433060000
  H        38.5406070000       59.0113470000       46.5738070000
  H        38.6289690000       44.8763100000       40.1375250000
  H        37.5048370000       62.4402580000       46.4932250000
  H        38.9029180000       50.1437780000       50.9612230000
  H        41.4361700000       48.4439650000       32.2937670000
  H        39.6337750000       30.1296950000       53.4576120000
  H        36.5414120000       48.4502670000       33.7302930000
  H        38.8935420000       46.5092030000       55.1648290000
  H        42.0688690000       51.4207250000       32.6102040000
  H        39.9704170000       50.5081910000       53.5144840000
  H        38.2777600000       54.1218210000       42.4416520000
  H        36.8884460000       38.6076870000       40.7904700000
  H        40.8523890000       30.8992060000       39.9515230000
  H        38.5554040000       32.3310660000       56.3799350000
  H        38.8519670000       51.2394330000       49.8393670000
  H        40.6960050000       49.7549250000       32.2566170000
  H        39.8494400000       31.0068160000       54.7435590000
  H        43.0685500000       53.9767840000       41.1896360000
  H        37.3021180000       50.4614230000       28.5759720000
  H        37.2288130000       32.0694520000       47.3704150000
  H        39.7936430000       39.3089090000       39.1127880000
  H        40.8089780000       39.6328250000       58.8368140000
  H        40.2212410000       57.8726450000       42.0541880000
  H        39.6523090000       51.1307480000       36.4459780000
  H        38.1725380000       46.8014630000       62.2477730000
  H        36.9750660000       39.9062860000       53.3675320000
  H        40.6332320000       39.2301370000       35.7055300000
  H        37.6851770000       56.3781150000       56.0648860000
  H        38.2172750000       60.3789880000       35.2789320000
  H        39.0093750000       29.0257450000       45.2258260000
  H        34.3858250000       47.6062130000       50.5482000000
  H        37.1269870000       45.8598130000       31.4980940000
  H        41.1780030000       54.2745350000       45.3063740000
  H        38.1784360000       54.1883460000       28.9016920000
  H        37.3178520000       36.5145650000       52.2944330000
  H        37.7948270000       32.1448570000       37.0985720000
  H        39.1188970000       44.1702990000       35.7449340000
  H        38.3640080000       42.0724470000       56.2734360000
  H        38.1743020000       61.2749910000       38.9815480000
  H        40.1490080000       58.5319410000       60.0526920000
  H        42.2543860000       49.3198360000       38.9060820000
  H        39.0001130000       44.7813070000       57.1467150000
  H        40.5769090000       28.4681630000       42.0061000000
  H        37.2460310000       45.6539430000       41.9221430000
  H        38.2120620000       41.6114610000       29.7517350000
  H        40.1421930000       61.1941060000       49.1061900000
  H        40.8088440000       48.8336400000       38.4880060000
  H        39.0969000000       45.9449560000       58.1716520000
  H        39.1723100000       28.9126700000       41.4771360000
  H        39.6306250000       46.7949300000       44.9287290000
  H        37.0647300000       48.0546400000       29.0955500000
  H        36.6428190000       57.8344800000       37.2026960000
  H        37.4573320000       52.3876640000       55.2306330000
  H        40.3252740000       34.7897000000       38.1133300000
  H        39.6609470000       36.4677600000       57.7691780000
  H        38.7044450000       30.9345730000       51.0551160000
  H        36.4482570000       42.1595260000       45.6661310000
  H        39.1140670000       39.7960030000       30.9951880000
  H        39.4786150000       41.2196050000       48.2057210000
  H        36.9401120000       39.5416470000       33.3779050000
  H        38.5384840000       56.1607220000       50.7474200000
  H        38.1639430000       58.5045780000       32.1078070000
  H        38.7889290000       59.3050380000       49.0532300000
  H        37.7432330000       42.9351540000       45.0111020000
  H        38.2154940000       39.1408200000       29.8139460000
  H        39.2624470000       58.2748380000       50.1875430000
  H        39.0394050000       33.8970430000       37.9246790000
  H        39.9019000000       36.7441610000       56.1819090000
  H        36.3068740000       58.9465420000       36.0702510000
  H        37.3862990000       54.0805950000       55.2979120000
  H        39.1968190000       52.6304140000       44.0706110000
  H        38.0397050000       50.2383170000       30.4942350000
  H        37.5366740000       32.2566190000       49.5582010000
  H        37.2784020000       44.8885410000       39.3320200000
  H        37.7295470000       60.7927540000       46.4200070000
  H        40.2997330000       56.6184580000       45.3049710000
  H        35.1585000000       56.0870000000       30.1856280000
  H        37.9826820000       36.7933890000       47.2519960000
  H        37.8087000000       57.2796690000       39.3478200000
  H        37.3331470000       37.6079520000       37.8361660000
  H        38.9352990000       37.1424580000       63.4699600000
  H        40.2565080000       52.9636610000       45.4786340000
  H        38.4011930000       53.8837150000       30.4461570000
  H        37.0011800000       36.5719810000       50.6938270000
  H        37.6451940000       33.3500440000       36.0069390000
  H        38.3220260000       36.4869380000       37.5791390000
  H        38.8224410000       38.3464400000       62.5767260000
  H        38.6288540000       57.3356830000       37.9628560000
  H        37.3375300000       47.0550360000       33.5191900000
  H        38.2177760000       45.1266650000       54.6542430000
  H        39.9461660000       46.6674440000       43.3531510000
  H        36.6525760000       46.6844160000       29.6380490000
  H        39.2981050000       46.7526760000       38.0060590000
  H        39.1898160000       42.2832720000       59.1325300000
  H        38.3351330000       61.1919180000       44.5859160000
  H        39.5443500000       29.9972390000       50.1522530000
  H        36.3306430000       42.0830770000       41.1906190000
  H        37.1345780000       59.0719040000       47.3024380000
  H        35.1566210000       50.0654490000       45.3289570000
  H        36.4596720000       43.0024790000       29.7917170000
  H        39.8567100000       36.8302390000       44.4838970000
  H        36.8854870000       36.1139230000       31.8550780000
  H        36.9052120000       56.8009080000       46.2112390000
  H        39.6184550000       38.2619150000       44.5289070000
  H        37.5902470000       37.2842700000       32.4404160000
  H        37.5006660000       55.3883020000       46.0619870000
  H        34.6824930000       54.8563520000       41.0077810000
  H        38.4765440000       51.9811300000       57.8464280000
  H        38.6761810000       35.0019720000       39.9530850000
  H        38.5067320000       35.2026900000       60.5956140000
  H        38.9132390000       52.6710810000       35.0327060000
  H        38.4360340000       48.1796960000       58.6488390000
  H        37.0944660000       29.2027470000       39.8766230000
  H        36.2856990000       54.6207510000       40.9960590000
  H        38.5979050000       52.2937390000       59.4324210000
  H        38.3266220000       35.6869570000       41.3416180000
  H        37.9947780000       36.2419320000       61.5845980000
  H        37.6079020000       39.2612790000       43.2993070000
  H        37.1295640000       56.1646010000       42.7664830000
  H        38.7652030000       51.4197940000       45.0865490000
  H        35.9083240000       50.2831120000       29.2706280000
  H        36.8802180000       30.5174450000       47.9262680000
  H        38.3579490000       47.4693690000       41.9896700000
  H        39.4419250000       41.6968220000       38.9673940000
  H        39.0562200000       40.6008320000       61.5982910000
  H        38.0446820000       57.7797200000       41.7184080000
  H        36.9348140000       29.3966440000       44.6395190000
  H        36.2814960000       43.1639300000       51.3955260000
  H        36.7012710000       39.7678690000       35.6637990000
  H        37.1255920000       58.8180060000       53.1368330000
  H        36.5915780000       51.1537710000       51.5517650000
  H        37.0118500000       54.9768630000       32.2826060000
  H        37.4524320000       34.8438620000       54.0301990000
  H        36.3007160000       31.0107880000       37.7539050000
  H        40.7282390000       56.2979060000       43.8391130000
  H        33.7459510000       56.4187610000       30.6559440000
  H        36.6548190000       36.1512790000       46.6069190000
  H        36.7752720000       43.1443100000       53.6779560000
  H        37.1075110000       41.7863590000       36.2059770000
  H        37.0137300000       60.5335050000       41.4263290000
  H        38.4135950000       39.4649150000       53.7323730000
  H        39.2933220000       39.4187060000       36.5412130000
  H        37.0524190000       56.3889030000       54.6862560000
  H        37.7542790000       59.4259250000       34.1128750000
  H        37.0031240000       49.9879100000       32.2735800000
  H        36.2077770000       49.8310260000       54.6996630000
  H        34.0804110000       29.5214480000       39.8925920000
  H        36.4257780000       33.8978740000       56.5757910000
  H        37.2085500000       50.5137270000       52.9560480000
  H        37.9304340000       53.7065510000       32.5641280000
  H        36.6688570000       36.0364660000       54.4682030000
  H        36.5737350000       31.9226730000       39.0081370000
  H        38.6314520000       52.9374270000       39.1005160000
  H        37.0094720000       50.4790390000       59.4642590000
  H        38.1578660000       33.5758500000       42.0555270000
  H        36.5851150000       49.1570190000       49.3243300000
  H        34.4366280000       43.8708590000       35.0234000000
  H        36.2392340000       53.4942810000       53.4080050000
  H        35.3644970000       56.9541800000       35.1974190000
  H        37.7446220000       36.8794320000       56.1637040000
  H        34.0769450000       34.6902880000       38.2100520000
  H        36.4816690000       38.4565270000       51.9009220000
  H        36.1775740000       34.4282280000       34.2187790000
  H        36.4170990000       54.9666860000       50.3748060000
  H        35.2074380000       58.7437340000       31.9684970000
  H        35.6398050000       46.5915150000       52.9136860000
  H        35.3608630000       46.9477000000       33.4517110000
  H        38.8219910000       48.9059410000       42.0703300000
  H        36.6797710000       28.7406840000       46.0455540000
  H        38.1893120000       40.9539480000       38.2687960000
  H        37.5622210000       40.1721020000       61.9791010000
  H        38.2323710000       58.9214980000       40.6830790000
  H        35.9398490000       51.9917870000       43.9666120000
  H        35.1634230000       34.6029560000       45.0050220000
  H        39.0378210000       49.8429290000       46.6050200000
  H        35.1027520000       45.9213700000       31.3480400000
  H        38.2400110000       49.0467310000       38.5582140000
  H        35.7474900000       61.3396140000       45.5975290000
  H        36.3134490000       40.3091420000       48.4098650000
  H        37.3813430000       41.8465650000       32.9728790000
  H        37.7981960000       59.3768880000       50.9063520000
  H        37.7801290000       48.8414680000       46.5850440000
  H        35.6200980000       44.6403920000       30.5452550000
  H        35.2734430000       51.7752370000       49.4415120000
  H        35.8759420000       53.3518300000       31.5171380000
  H        32.9902390000       36.4291020000       39.3556090000
  H        37.6837260000       37.8350290000       58.4719670000
  H        34.8586680000       56.6330380000       37.3419700000
  H        38.8900740000       57.7772790000       57.9236440000
  H        35.7692700000       30.7886230000       51.3153060000
  H        36.3477690000       49.3516680000       39.4215430000
  H        37.9103230000       49.3549920000       62.6091360000
  H        37.1427330000       30.8065420000       42.1818110000
  H        37.3877670000       52.7862450000       35.3518420000
  H        38.8748530000       47.8002570000       57.2537570000
  H        39.7116690000       51.8105160000       39.4258080000
  H        36.2395280000       49.0853330000       59.1676520000
  H        38.1165700000       33.8898690000       43.6385320000
  H        36.4176230000       28.7435490000       41.1253020000
  H        36.0231070000       48.5630480000       53.7239410000
  H        36.1041430000       50.8157190000       33.3181180000
  H        36.6270150000       32.8436310000       55.4095820000
  H        33.9919620000       28.5170170000       38.7733860000
  H        36.7638530000       46.8831850000       36.1098730000
  H        34.5272470000       45.0651500000       57.0379850000
  H        37.2777870000       42.7262850000       34.9506610000
  H        36.2932430000       44.3598850000       54.5566690000
  H        38.9346160000       39.9856920000       42.8560650000
  H        37.5550250000       56.8918800000       44.1809700000
  H        36.5708440000       60.2355260000       39.8500380000
  H        36.6481270000       44.5641080000       51.8745910000
  H        35.4847570000       40.4837860000       36.4044870000
  H        38.2308810000       58.7591310000       54.3564740000
  H        35.4612240000       41.0466990000       43.8945410000
  H        36.5356000000       39.1041770000       31.3621740000
  H        34.8860700000       57.8316450000       46.9309740000
  H        35.8222750000       49.0177260000       44.4930880000
  H        35.9809330000       42.6434710000       31.1874720000
  H        36.0316560000       39.4628250000       50.9222950000
  H        36.4030370000       35.9150400000       34.3379710000
  H        36.6762030000       54.6092970000       51.7821460000
  H        36.3079430000       58.7008700000       31.0076120000
  H        34.5917580000       42.3108600000       39.8170720000
  H        35.0989290000       40.5111110000       61.0061890000
  H        35.6764630000       60.6821040000       43.6458540000
  H        37.6666740000       53.4611040000       49.9552970000
  H        36.2117230000       56.0821420000       33.6023230000
  H        35.4996780000       35.9869220000       49.2962440000
  H        34.9232440000       33.8116450000       36.1278100000
  H        36.1594420000       40.4085290000       55.5279340000
  H        35.2672360000       38.9644330000       38.3071280000
  H        36.0350770000       58.5656010000       55.3603590000
  H        34.7686850000       59.3627920000       39.7480820000
  H        38.0191560000       48.8961350000       49.7451610000
  H        33.9189270000       42.9925440000       33.8248730000
  H        33.8331390000       48.7580110000       46.3462470000
  H        35.0632930000       50.0629560000       31.4455870000
  H        37.5419540000       29.0648340000       50.4152300000
  H        35.1230860000       54.5919410000       53.4465360000
  H        34.8347700000       55.5059510000       35.4972220000
  H        36.2636010000       36.3424850000       56.4861820000
  H        33.9783380000       33.1000590000       37.9654750000
  H        33.9682010000       50.3902470000       52.8150080000
  H        34.1716850000       51.5497330000       34.3440630000
  H        35.8482800000       33.5944410000       53.6390040000
  H        34.3209870000       30.5909440000       37.6096250000
  H        37.5414870000       50.4141630000       39.7974800000
  H        37.8593210000       48.8633300000       61.1216860000
  H        37.5907510000       50.1085610000       43.6921160000
  H        35.9058450000       28.9817450000       48.6288770000
  H        37.4927600000       31.8762070000       43.2246810000
  H        35.4866890000       43.5705500000       39.4501180000
  H        36.0992720000       39.6280830000       60.1499090000
  H        35.1886620000       60.2436700000       42.2638640000
  H        34.7521190000       40.1523160000       48.5826830000
  H        35.8316150000       42.1910650000       33.4389500000
  H        37.0018750000       60.4636480000       51.7811140000
  H        33.4135420000       49.4669280000       47.6844920000
  H        34.4084610000       51.3890450000       30.8850470000
  H        36.7792900000       27.8294040000       50.0824660000
  H        34.4080490000       36.7938510000       38.8545080000
  H        36.5715830000       38.5333920000       57.8224140000
  H        35.2011230000       55.7647220000       38.6101570000
  H        37.3909120000       58.1085690000       57.6043550000
  H        35.2341020000       42.6256650000       43.9462120000
  H        35.8319670000       40.3586190000       31.9156160000
  H        35.5716240000       57.2915670000       48.2612380000
  H        38.8030110000       48.3862860000       39.9349840000
  H        34.4417690000       61.8325340000       44.9907430000
  H        37.0332950000       52.7190840000       44.7582500000
  H        36.3452360000       33.9381040000       45.7991760000
  H        38.5224960000       53.4228510000       48.5784970000
  H        36.4339500000       57.1422130000       32.4567820000
  H        36.9701140000       35.7849640000       48.5556730000
  H        35.0308850000       32.5477310000       35.3654750000
  H        36.8539790000       43.4750990000       37.5745030000
  H        36.9839000000       42.6883970000       59.5969220000
  H        35.5443970000       51.8485940000       38.6205000000
  H        36.1030760000       52.2573790000       58.0048370000
  H        36.3496910000       34.9132870000       41.0523220000
  H        36.3151900000       35.7127430000       60.2004740000
  H        34.6674820000       45.3785750000       53.1504250000
  H        34.3013720000       45.7510350000       33.4447160000
  H        34.9565720000       50.1963750000       36.9845600000
  H        35.7782820000       47.4539970000       57.1832570000
  H        34.3691630000       52.3807990000       50.5599130000
  H        34.3715720000       53.9387730000       31.2240150000
  H        34.3684540000       38.6094080000       46.0690400000
  H        34.8768620000       53.9516830000       45.9682870000
  H        36.3948190000       32.3246400000       51.1002350000
  H        34.0486440000       28.1123820000       41.8679220000
  H        34.3355350000       49.2888560000       51.7460060000
  H        34.7327740000       52.4863620000       33.2241540000
  H        35.4442190000       32.2864970000       53.0320060000
  H        34.8728190000       30.2877250000       36.1923560000
  H        35.2440160000       53.4026060000       39.1082470000
  H        35.9718040000       52.8790620000       56.6313370000
  H        34.9041210000       35.2933630000       40.6391980000
  H        36.0324410000       36.7548360000       59.1321100000
  H        35.4872950000       53.0421050000       35.4493580000
  H        35.2904650000       49.5672300000       56.2854720000
  H        34.6480650000       31.7903430000       40.1948490000
  H        34.4183760000       34.7729880000       57.0443940000
  H        37.1132340000       50.6591050000       42.2984480000
  H        34.5703980000       50.6313410000       41.8636400000
  H        32.9738860000       31.1614630000       47.1564660000
  H        34.8912040000       29.5397300000       47.4605270000
  H        35.3792660000       46.3126190000       36.3405910000
  H        35.9851000000       44.8773630000       57.7067710000
  H        35.4467140000       53.1347420000       37.0219970000
  H        35.2228310000       51.1685560000       56.4116200000
  H        35.1196880000       33.2958140000       40.5039680000
  H        35.3681060000       35.3077170000       58.2531390000
  H        35.7040010000       39.9455770000       41.9734480000
  H        35.3330110000       57.4040120000       43.4743340000
  H        32.3013480000       48.9195650000       52.6016690000
  H        33.5106150000       47.4191290000       34.7250250000
  H        35.0088460000       39.4219440000       54.9486200000
  H        34.2326200000       38.4664840000       37.2882020000
  H        34.7634550000       57.7105450000       55.8007490000
  H        35.3678720000       59.3618450000       38.2908780000
  H        34.1987130000       36.7205540000       47.6646290000
  H        35.4070650000       55.0492380000       48.4816340000
  H        37.0993460000       51.3834380000       47.7775060000
  H        33.6671860000       35.2763230000       48.0161950000
  H        34.1602080000       54.9661680000       49.3345740000
  H        34.1830340000       33.8653140000       46.8248840000
  H        36.2868520000       44.9605460000       37.6266970000
  H        36.0689790000       42.0418330000       58.5001930000
  H        55.2701510000       48.9737840000       40.0576340000
  H        54.3411350000       48.7295600000       44.9880820000
  H        54.8193440000       32.0879110000       47.0037470000
  H        54.9013340000       30.2810340000       42.4238440000
  H        52.9647720000       49.2342790000       49.8528050000
  H        55.5553660000       51.6577590000       31.0807760000
  H        52.9537260000       33.0705180000       52.6420520000
  H        54.2997710000       51.2720090000       53.6973950000
  H        59.4380660000       57.6224010000       36.5256330000
  H        55.4300910000       37.0076170000       53.2732700000
  H        54.4855410000       36.0341930000       37.7857480000
  H        52.0493550000       50.6853780000       46.2027980000
  H        56.0363680000       48.6314460000       30.1273880000
  H        53.5872370000       28.2939490000       49.7295750000
  H        52.1754820000       42.6001200000       53.5567820000
  H        54.5849010000       43.3448300000       32.2688890000
  H        53.0424880000       38.9439970000       55.6866300000
  H        53.7090760000       39.5500150000       36.2543990000
  H        52.0759250000       57.9637540000       55.5290580000
  H        57.6700430000       58.2571700000       35.3570300000
  H        55.9362280000       52.6809900000       50.5766720000
  H        54.2021410000       56.2587360000       33.1782740000
  H        52.7757260000       36.8098390000       50.1711250000
  H        54.0085930000       36.5920560000       35.1105190000
  H        54.9458950000       44.1311350000       40.1923880000
  H        55.4209510000       41.2601930000       61.7565050000
  H        54.8425820000       61.0402860000       44.7444930000
  H        53.3956810000       40.7628710000       50.0534170000
  H        55.0639100000       37.2393380000       33.5143700000
  H        55.6007580000       56.2698450000       50.5612200000
  H        54.1503740000       45.2506630000       48.5123970000
  H        56.8898330000       44.5735280000       31.8081390000
  H        52.4320270000       45.7024760000       46.5383740000
  H        54.9225370000       40.6679250000       29.3346580000
  H        55.2170990000       59.9067700000       47.7691480000
  H        53.9635670000       40.4869020000       52.4023100000
  H        55.7034330000       40.6857190000       35.8011890000
  H        57.8097980000       42.2053120000       36.3091830000
  H        54.9337450000       41.5967950000       57.9870590000
  H        58.5158740000       37.7133660000       45.2201280000
  H        57.3379770000       58.1122630000       44.9040300000
  H        55.7693650000       47.8075610000       38.2723880000
  H        56.9429270000       49.1061210000       33.9607710000
  H        58.5892850000       50.9294350000       39.4290050000
  H        53.4654430000       47.1798020000       57.2393510000
  H        55.5011150000       51.7445710000       39.7093690000
  H        54.5276550000       33.9022220000       41.3134490000
  H        55.0959750000       47.7047250000       40.8443660000
  H        54.7314720000       31.7595040000       42.0735370000
  H        52.9584180000       52.2431560000       48.1515430000
  H        53.5494490000       55.4974150000       31.1201560000
  H        55.5985660000       37.6845360000       39.2728160000
  H        54.7971600000       36.3923190000       57.2009440000
  H        55.6083620000       58.2573150000       37.5480060000
  H        54.8972330000       31.9323890000       49.6155740000
  H        55.2238140000       46.2675300000       50.8652760000
  H        57.1586790000       46.9114850000       30.9126740000
  H        52.9014630000       43.0572320000       48.0460260000
  H        54.4583520000       39.3516280000       32.7232850000
  H        54.3957280000       58.2826940000       50.7130210000
  H        53.6089180000       45.4364510000       39.2011730000
  H        55.1985170000       46.2625540000       52.3739440000
  H        56.9933440000       47.7818590000       32.1557310000
  H        55.5672680000       53.2833650000       45.2756610000
  H        54.2172770000       36.4128870000       43.8174670000
  H        56.6832790000       40.3907700000       41.8631060000
  H        59.8998890000       58.4631420000       43.3654010000
  H        55.9094940000       48.5755210000       43.9869950000
  H        53.6187800000       44.2025280000       53.7381120000
  H        56.8807580000       46.5181090000       34.1824370000
  H        52.1705840000       40.5966640000       51.0720890000
  H        56.1125950000       38.3370550000       33.9564040000
  H        56.0988640000       54.8464990000       50.1908010000
  H        54.9210870000       52.1227050000       52.4635780000
  H        58.0010450000       57.3331030000       37.2749790000
  H        54.6607190000       36.5744470000       52.0131810000
  H        54.9157960000       37.3598420000       37.1828810000
  H        53.5088970000       41.8769800000       53.9795890000
  H        55.8889000000       42.4966890000       32.4267050000
  H        55.4270310000       52.8271980000       40.7214080000
  H        55.4353120000       33.8133410000       42.6327160000
  H        55.4804720000       49.1738390000       51.1488560000
  H        56.3919530000       52.9935650000       32.7926380000
  H        54.6097220000       34.7214190000       53.3159520000
  H        56.4779200000       34.4007080000       35.3565920000
  H        56.5229490000       50.3316760000       34.9581790000
  H        54.9525130000       38.5447210000       54.4525850000
  H        57.6964820000       38.3203410000       37.5528420000
  H        54.7059020000       40.7194840000       56.6937900000
  H        58.8002270000       43.4185630000       36.7792620000
  H        56.7798820000       51.1016420000       50.3890500000
  H        55.4678630000       37.7163990000       48.1872650000
  H        55.8843320000       50.3297370000       52.2360760000
  H        57.2209260000       51.7094190000       33.0252600000
  H        53.7598930000       33.9127350000       54.3973030000
  H        55.2583210000       33.5860140000       35.9184170000
  H        55.1743270000       41.3145170000       52.9280520000
  H        57.1232060000       39.8889910000       36.0165720000
  H        56.2527170000       48.5440020000       42.5077650000
  H        57.6345380000       40.4674540000       43.0658280000
  H        59.7932540000       56.8593990000       43.3559200000
  H        55.5930440000       49.9254640000       47.3665100000
  H        57.0678090000       31.9874730000       47.3968970000
  H        59.1631020000       38.6452600000       46.3699370000
  H        57.4010640000       57.4455380000       46.2963240000
  H        54.7323710000       54.9237070000       39.2696600000
  H        52.2856220000       33.6049690000       40.7630970000
  H        57.3622990000       50.9488330000       40.4966920000
  H        53.7523090000       47.2450820000       58.7243060000
  H        53.4607670000       54.3339600000       40.0366940000
  H        52.8572580000       34.9533900000       40.3536970000
  H        58.3316980000       38.9111350000       48.2311900000
  H        56.7249770000       55.1930810000       47.2476290000
  H        59.9388820000       39.5514520000       48.0425410000
  H        56.6636320000       55.8018730000       48.6789430000
  H        55.4792410000       44.5397310000       48.7903600000
  H        55.7335510000       45.2294580000       31.0891190000
  H        55.4539200000       41.2075590000       47.2646300000
  H        57.2764750000       59.7639410000       47.1909400000
  H        57.4121690000       47.1780220000       52.2690970000
  H        59.1667000000       48.6583500000       32.3102590000
  H        55.7063430000       45.0951480000       42.9190960000
  H        56.7036760000       44.8867510000       39.0841320000
  H        57.0869810000       43.4551590000       56.0390720000
  H        54.2613820000       37.8587530000       41.2874380000
  H        55.5512200000       54.9202590000       41.9091750000
  H        56.9260500000       35.1065660000       52.2342130000
  H        55.3112420000       54.7116370000       43.3740780000
  H        53.4291170000       38.6404880000       42.3658590000
  H        56.7482590000       51.5391870000       48.8071730000
  H        56.3648510000       37.2210870000       49.2833030000
  H        56.8801560000       44.8837570000       44.8268520000
  H        56.5566130000       48.4468220000       48.7520700000
  H        56.6142290000       32.8313060000       49.3357330000
  H        57.2271100000       36.4176630000       37.9301300000
  H        56.4881290000       37.6287330000       55.9987210000
  H        57.1659960000       57.8394390000       39.6085170000
  H        56.5262470000       41.7074440000       49.7728600000
  H        56.4339430000       42.5711230000       48.3425470000
  H        56.7454050000       39.8505450000       51.0893910000
  H        58.3342170000       55.6163840000       51.8447980000
  H        57.3563210000       48.7596420000       52.0450540000
  H        59.4062920000       49.6652940000       33.4935590000
  H        57.3599480000       56.3841240000       38.9643690000
  H        57.5958600000       36.3656360000       39.4804410000
  H        57.1978470000       36.4263390000       56.6746870000
  H        58.3802170000       48.3869920000       40.3163450000
  H        56.7758890000       46.0434300000       58.0157200000
  H        58.3804310000       42.9424470000       49.2430780000
  H        57.6778390000       46.9047680000       39.9813050000
  H        57.3391760000       44.4596320000       58.0537160000
  H        58.6964070000       40.6647080000       41.0062340000
  H        56.8034340000       39.8866090000       57.3153940000
  H        57.3468500000       33.8081770000       52.8625380000
  H        57.1242720000       44.1537260000       53.7587040000
  H        57.7381980000       43.8647010000       34.2557720000
  H        58.5893170000       47.1288760000       43.6284520000
  H        56.3963820000       39.0671200000       53.9778100000
  H        58.7843420000       39.3071270000       36.9678130000
  H        60.1149030000       38.5167480000       44.2182850000
  H        58.2470950000       58.3997780000       41.6117090000
  H        57.2051650000       50.0332160000       46.9128790000
  H        58.5893840000       32.1022320000       47.7390490000
  H        57.8820250000       46.4834960000       55.1122880000
  H        58.4807810000       48.1453340000       35.1884610000
  H        61.3415480000       48.5999120000       38.1626760000
  H        54.8989540000       48.8805020000       57.1586640000
  H        57.5055640000       52.8350770000       46.1733610000
  H        57.1210280000       36.7565340000       43.9277570000
  H        57.6140930000       45.5957870000       37.9985600000
  H        56.7327800000       42.1822990000       57.0705740000
  H        58.3971520000       47.6416140000       54.3716890000
  H        59.8103890000       47.6466780000       34.5661340000
  H        56.0277800000       43.9524010000       45.7378040000
  H        58.0283380000       54.1954000000       45.5169740000
  H        56.4312010000       41.5609290000       46.0408370000
  H        56.5987740000       35.7809760000       45.0568230000
  H        56.4660620000       60.7533170000       46.3852330000
  H        58.5219510000       43.9641550000       54.5245930000
  H        58.3229490000       44.7319880000       35.3997550000
  H        56.7414530000       46.2422160000       43.0886350000
  H        58.6234680000       47.2038210000       42.0985660000
  H        58.3969220000       36.1037690000       54.7950430000
  H        57.9415140000       36.3010800000       35.6148560000
  H        58.8961060000       53.5381260000       53.6119300000
  H        55.9945000000       43.5473410000       51.1233590000
  H        56.9810080000       41.5648040000       34.1859180000
  H        57.1195290000       47.4445210000       49.7602230000
  H        56.4418210000       33.4235330000       50.7858240000
  H        58.6175430000       53.6404490000       42.1514180000
  H        60.6309430000       37.7301770000       42.9019740000
  H        55.8907670000       37.5183530000       42.4229180000
  H        56.8007100000       58.3710960000       42.0634130000
  H        58.0962060000       52.2217840000       53.8278120000
  H        59.1138770000       34.8764940000       55.4442640000
  H        56.4511810000       36.0648780000       36.0271840000
  H        55.0734660000       44.0795180000       52.2462550000
  H        57.5624070000       41.3037280000       32.6222790000
  H        60.3688740000       48.3812710000       36.8583300000
  H        55.9468360000       50.0455580000       57.3423180000
  H        60.0233560000       37.2535600000       48.6224760000
  H        60.9957330000       54.0040300000       48.2729180000
  H        59.7630440000       46.5846390000       47.9235890000
  H        58.2444950000       39.7798200000       55.7161760000
  H        59.6258400000       40.4623800000       38.4167830000
  H        59.9629740000       43.6006140000       49.6899610000
  H        58.3389820000       54.3695690000       39.8455070000
  H        57.3047970000       36.3653010000       41.3827790000
  H        60.5655900000       41.6105050000       44.7555580000
  H        59.1434010000       44.5634200000       47.8223450000
  H        57.4637420000       43.9049200000       41.3206610000
  H        56.0548970000       39.3934940000       49.6761210000
  H        58.9862630000       54.2037320000       51.5480580000
  H        59.8675840000       37.8882750000       40.5330480000
  H        60.0921330000       52.2992590000       50.1981830000
  H        58.9836690000       36.2562770000       52.7413180000
  H        58.4744420000       42.2382620000       40.5409290000
  H        57.4653210000       38.5099710000       57.4352160000
  H        59.2305560000       54.9390380000       38.6379710000
  H        56.9008320000       34.8248190000       41.0537070000
  H        57.1550720000       38.5301600000       42.3716760000
  H        59.3964020000       53.1406870000       40.9073590000
  H        61.5316940000       36.8978550000       44.5690550000
  H        59.7276330000       54.8279540000       46.6062640000
  H        60.9044090000       51.9901590000       39.4380250000
  H        59.0466060000       50.5316550000       45.1985930000
  H        60.2074560000       33.3853650000       46.7383440000
  H        62.6783110000       36.3767420000       45.5331000000
  H        59.3553410000       56.0181290000       45.7480410000
  H        58.9335700000       40.8912210000       54.8793160000
  H        59.9700130000       41.1529570000       37.0890040000
  H        59.7686610000       36.4192110000       41.1757550000
  H        59.2410250000       49.4074660000       42.8275610000
  H        59.5576720000       50.4737580000       46.6197900000
  H        61.0908230000       32.3117820000       47.5723920000
  H        58.2310700000       41.4326310000       44.7601180000
  H        58.8109170000       47.6927830000       48.2917260000
  H        59.4008700000       50.5349710000       41.8720280000
  H        60.2688130000       35.7652070000       48.5430520000
  H        59.7242380000       54.1188450000       48.9749200000
  H        59.6258800000       46.1566940000       56.0844980000
  H        61.6258860000       43.2287120000       38.5500190000
  H        60.1289080000       45.8507110000       43.0950170000
  H        57.7439320000       39.8864690000       44.8642000000
  H        59.9072000000       45.0967400000       37.7109490000
  H        59.9111380000       43.8564960000       56.1432910000
  H        59.0248200000       35.1332100000       45.9285850000
  H        58.3535070000       45.0941990000       46.6009880000
  H        58.9804240000       44.1845560000       41.7063580000
  H        61.7003460000       51.6992770000       40.7669790000
  H        59.9610050000       50.5604830000       38.1344890000
  H        60.7195680000       38.1525530000       50.4981280000
  H        60.0351680000       43.0575230000       44.9933770000
  H        58.5491500000       52.5432530000       50.0529070000
  H        58.1202030000       37.6150190000       52.9049560000
  H        59.3222460000       46.0274280000       36.4740690000
  H        58.9088030000       42.6959140000       56.3617900000
  H        61.4664640000       44.5926230000       51.4078500000
  H        61.4821380000       43.0614900000       50.9917830000
  H        58.2995030000       39.5943540000       53.3653180000
  H        59.3056480000       51.9743080000       37.6080190000
  H        61.9936760000       44.6643130000       48.9073670000
  H        60.0888440000       46.5819220000       40.2927370000
  H        61.0833780000       39.6378340000       50.1582630000
  H        60.3506980000       41.3457600000       48.3726090000
  H        61.1685360000       43.2757660000       41.8690320000
  H        62.0967040000       47.9712170000       40.0806710000
  H        60.8717890000       48.7195460000       47.2951140000
  H        62.1298920000       47.4018750000       44.2498420000
  H        60.9207030000       41.7099940000       55.4157770000
  H        60.1424500000       47.7836950000       50.1875820000
  H        60.0345950000       45.5466720000       57.4855130000
  H        61.1234550000       44.5440030000       39.4003940000
  H        61.0948430000       44.7183200000       43.6594880000
  H        61.4511340000       40.5491770000       51.9408100000
  H        61.5714680000       41.4318230000       53.2341510000
  H        60.5860350000       35.4256390000       45.9998740000
  H        58.9222310000       39.3105670000       51.9547810000
  H        60.9744460000       40.1543180000       55.0099920000
  H        61.2663750000       45.9523140000       41.0745610000
  H        61.4685810000       40.6820210000       47.5165860000
  H        61.9794230000       46.2477320000       48.5837070000
  H        60.9149270000       42.1653480000       40.9361760000
  H        59.4633650000       47.8388930000       51.5491700000
  H        62.1765650000       44.8999740000       46.1599010000
  H        61.0958930000       46.6359860000       51.7920390000
  H        62.5197440000       41.1442510000       43.2645400000
  H        61.7950310000       48.8198490000       43.8157660000
  H        63.4844680000       48.2058400000       39.4958290000
  H        61.4537290000       46.3024940000       53.3080140000
  H        61.0846920000       50.3612580000       48.7321810000
  H        62.1234280000       39.8287880000       44.0489090000
  H        61.8887580000       48.9931130000       46.2333460000
  H        62.6468830000       41.2992450000       45.6336630000
  H        60.6473550000       44.8716550000       46.0757580000
  H        60.7462730000       49.8924080000       50.2306420000
  H        62.6713930000       42.5496110000       46.5817820000
  H        34.7680720000       38.9947620000       42.8330580000
  H        33.5882950000       36.7504740000       43.7472630000
  H        33.3153930000       54.2816190000       42.6546510000
  H        33.6243960000       57.3871390000       43.7984080000
  H        34.3569210000       44.8260260000       42.2134770000
  H        33.0633570000       59.4587410000       47.5473100000
  H        35.1258390000       51.6237010000       40.8133410000
  H        33.3963190000       30.4291440000       45.8523370000
  H        34.5869230000       47.5371240000       42.6014440000
  H        33.7802420000       43.5377050000       59.4303770000
  H        32.0764950000       38.4751880000       49.4679030000
  H        34.0034480000       39.3711020000       32.7553570000
  H        35.1465750000       58.8754050000       51.1197350000
  H        34.0205000000       49.5015210000       37.9019050000
  H        34.6329410000       48.3887080000       57.6295440000
  H        34.2638880000       29.6142940000       42.2374010000
  H        34.3790400000       43.3044040000       41.9025920000
  H        33.9190640000       60.0227060000       46.2511350000
  H        34.1562360000       45.2841060000       49.7802520000
  H        32.4728170000       44.6253350000       31.8798330000
  H        33.3781460000       49.4164770000       40.7116850000
  H        35.3019700000       31.0940240000       43.1494220000
  H        31.3109270000       48.2563490000       51.6175180000
  H        33.6074150000       48.6354150000       35.8384540000
  H        34.2632180000       38.7369060000       52.9610100000
  H        34.4125900000       38.1292380000       34.9386930000
  H        34.2327730000       57.4497170000       52.8435160000
  H        36.6389470000       47.2597570000       39.6790820000
  H        33.4825300000       41.3018360000       38.0825350000
  H        33.5725050000       42.3029110000       56.5942610000
  H        35.1987520000       38.5079110000       47.3959140000
  H        33.7934030000       54.9477970000       46.5288770000
  H        32.0455510000       40.5563840000       48.2270600000
  H        31.5986700000       60.0632990000       49.4501010000
  H        32.7128380000       36.9364930000       49.1050950000
  H        32.7454640000       39.0080490000       33.7809440000
  H        34.6273100000       57.5246180000       50.4721700000
  H        35.5885560000       47.3807200000       38.6595780000
  H        32.3662340000       49.0311610000       49.8501740000
  H        34.1329530000       32.0273830000       50.5889830000
  H        33.9190880000       46.6707480000       40.7240590000
  H        34.5145600000       46.1716970000       59.1106610000
  H        33.6959480000       40.1825390000       39.1955130000
  H        34.1318030000       40.8554650000       56.6233040000
  H        33.9821500000       44.5081110000       48.4179700000
  H        33.6665850000       43.8709040000       31.1562400000
  H        35.7431150000       50.7783380000       47.4285770000
  H        33.6656740000       33.3425150000       48.2362670000
  H        33.8828890000       41.1411840000       53.5896790000
  H        33.0170290000       40.1991590000       36.2357440000
  H        32.2148260000       53.3816380000       49.5834680000
  H        32.4528410000       32.8967430000       51.0044890000
  H        34.0021840000       55.6787320000       42.7444800000
  H        32.6254610000       37.6397820000       44.7133430000
  H        34.6721350000       41.2050690000       52.3183110000
  H        33.1796920000       41.6157750000       35.6999630000
  H        33.2411770000       38.1805280000       54.1837170000
  H        34.0480210000       36.7227360000       35.4033070000
  H        33.2457050000       56.9725450000       53.9521930000
  H        33.6153010000       44.2361020000       54.9076220000
  H        32.8950380000       45.3521970000       35.4427990000
  H        34.1405460000       46.8580550000       43.9075880000
  H        33.1907980000       44.8861600000       59.9031700000
  H        32.3535420000       45.4730620000       47.0803580000
  H        30.6551610000       47.3936120000       49.1376990000
  H        32.8850830000       49.0599620000       31.2271830000
  H        32.5919410000       52.1487640000       52.4165350000
  H        32.8161450000       49.6991740000       34.4255720000
  H        33.6409720000       32.9618610000       54.0976200000
  H        32.7021590000       44.1127520000       56.1546850000
  H        33.3305260000       45.2312780000       36.8670110000
  H        33.1664170000       52.4029550000       38.8690770000
  H        33.4901530000       51.5514080000       57.7697290000
  H        31.6920880000       35.2573330000       39.6090630000
  H        32.6588800000       46.8874490000       41.5363840000
  H        33.5462760000       47.2049040000       59.6035650000
  H        32.6296160000       42.3259650000       42.2980900000
  H        32.5864670000       58.2838870000       45.6009260000
  H        33.3428340000       52.3272590000       42.8961080000
  H        33.4470790000       34.4639790000       43.7228160000
  H        33.5258600000       43.4176070000       52.8313580000
  H        31.1616060000       42.2523250000       34.1967100000
  H        33.1391880000       44.5654350000       46.0997890000
  H        32.5411550000       47.6043830000       45.1383110000
  H        31.8486170000       44.5355430000       41.3792470000
  H        33.3323710000       41.0527450000       59.1484190000
  H        31.8918180000       52.8721900000       42.8449990000
  H        34.6178370000       35.1581240000       42.8033860000
  H        32.9876330000       38.4890990000       41.7808100000
  H        34.0179460000       37.4578320000       60.1983850000
  H        34.1585560000       58.1241540000       41.6299640000
  H        32.6424930000       54.5151730000       50.6599720000
  H        31.6141790000       34.0943540000       51.6140800000
  H        32.6122650000       49.2150780000       42.2589020000
  H        33.9919990000       52.8854490000       52.7498410000
  H        32.4276290000       50.6179550000       33.1734710000
  H        32.6061100000       41.3096950000       49.4776990000
  H        32.6969510000       59.0264470000       49.8598400000
  H        32.2172640000       32.9952520000       53.6846580000
  H        33.7206250000       31.7076820000       43.2111700000
  H        33.4176570000       50.2165040000       49.8205780000
  H        33.2461100000       31.3457580000       49.4922640000
  H        32.4675560000       50.5381250000       39.2260710000
  H        32.9539250000       49.5475270000       58.2586670000
  H        30.5166620000       38.2218210000       44.8109280000
  H        31.9564760000       55.9922150000       45.7998780000
  H        30.1754960000       36.1881300000       51.7141400000
  H        32.0217100000       37.0995360000       34.3461080000
  H        31.6520950000       55.4299970000       52.0885400000
  H        31.3037340000       36.6497340000       50.8405840000
  H        31.6026770000       38.3793560000       35.0897620000
  H        32.4079020000       56.6309630000       51.3802260000
  H        32.9175430000       40.0275600000       41.6404310000
  H        33.2926110000       38.8047420000       60.5116520000
  H        33.2040750000       57.7933080000       40.3758440000
  H        32.6078720000       45.3794800000       39.2801120000
  H        31.6251340000       44.0045880000       58.4209670000
  H        31.9539650000       38.2049060000       40.1152390000
  H        32.6355570000       37.8420760000       58.7234950000
  H        32.8238310000       51.4186080000       46.8441100000
  H        32.0830950000       33.3629950000       46.4934420000
  H        32.1486420000       48.9215600000       39.0879680000
  H        32.4596510000       48.0951490000       57.6506280000
  H        31.7571270000       52.1937190000       38.1516180000
  H        32.1508340000       51.2403380000       57.0078650000
  H        30.2032440000       35.5032410000       40.0393960000
  H        33.4948100000       46.6014180000       45.9807410000
  H        30.2374610000       44.6512070000       41.1408780000
  H        32.9874930000       41.8259420000       60.4607270000
  H        30.5305570000       48.2800670000       54.4384820000
  H        31.2530780000       48.0684620000       35.8524570000
  H        32.3776580000       50.7614270000       54.8694700000
  H        31.6607650000       51.6479600000       35.8344910000
  H        31.9589910000       36.3035530000       54.7378250000
  H        32.8448550000       34.8082710000       35.9598510000
  H        32.1998900000       54.3392980000       54.1369900000
  H        29.8746320000       48.5824440000       49.7988040000
  H        33.4643360000       47.9757300000       32.2165160000
  H        29.8321540000       40.0462260000       48.6891580000
  H        33.1412690000       43.6744830000       43.8754650000
  H        32.2688440000       44.1384680000       50.1654950000
  H        31.5176290000       47.0822430000       32.0052560000
  H        31.3428900000       41.4927970000       41.9578690000
  H        31.5233090000       58.2857020000       44.3941020000
  H        32.3958740000       52.8105440000       46.2751170000
  H        30.8198450000       33.4136280000       45.5150650000
  H        30.7191610000       37.4894090000       46.1991760000
  H        31.5957300000       55.3087050000       47.1465450000
  H        31.6385460000       37.0746770000       43.2158160000
  H        32.3839550000       56.1079030000       41.1512820000
  H        33.1551460000       49.6421510000       44.5439620000
  H        32.2060450000       32.6674670000       44.4399090000
  H        32.2422580000       50.9008530000       44.1472950000
  H        32.0739010000       33.0320900000       42.8505110000
  H        32.2889520000       44.3384010000       53.3213170000
  H        31.4214880000       43.6692680000       34.6211650000
  H        30.8706880000       52.2858280000       50.8235850000
  H        30.3861380000       32.7395830000       50.6488160000
  H        31.3462660000       40.8027890000       38.7563630000
  H        31.5637630000       39.0264160000       56.9196130000
  H        30.7150480000       37.4716240000       39.6160740000
  H        32.6910400000       36.9647950000       57.4251180000
  H        29.8659410000       35.9123610000       47.8085160000
  H        30.2948890000       54.6725640000       48.6260240000
  H        31.7537580000       36.4352100000       53.0864880000
  H        33.4173690000       34.9275460000       34.5792880000
  H        30.7006480000       54.5712430000       53.9538150000
  H        30.7657460000       38.2257210000       53.9503150000
  H        32.2623160000       38.1709130000       37.4072050000
  H        31.3720780000       47.0398240000       39.0156400000
  H        30.4985860000       45.8622250000       57.5454430000
  H        30.1701260000       52.6410680000       52.9422620000
  H        32.6650840000       34.2562750000       55.6063370000
  H        31.7615980000       44.5011110000       38.3035270000
  H        30.6668800000       43.2634940000       57.3656030000
  H        30.3986050000       47.2917670000       43.7456270000
  H        30.9085960000       52.4618080000       40.7694100000
  H        30.6652080000       33.5972470000       41.3378550000
  H        32.7968240000       42.5777320000       44.9997010000
  H        30.5210250000       50.3179590000       46.7848240000
  H        30.0334360000       46.9780640000       41.4270780000
  H        30.1096130000       51.1673520000       51.5608310000
  H        29.0427420000       31.9341670000       50.4795420000
  H        30.2332760000       47.6605940000       55.8552560000
  H        30.6371980000       47.6270440000       37.0965510000
  H        29.7564650000       40.3030020000       47.1445990000
  H        31.0634370000       51.7707830000       54.7995900000
  H        30.2450750000       52.2163860000       36.2356430000
  H        30.9710730000       45.5874710000       54.7004250000
  H        30.7468740000       46.0193550000       35.3245160000
  H        30.7351200000       49.2050330000       45.6211400000
  H        29.6207050000       42.4734550000       48.4443910000
  H        31.6155440000       54.2177110000       37.9886810000
  H        28.2801340000       37.1356730000       39.1813340000
  H        30.8350790000       43.4613610000       49.9980050000
  H        30.3375600000       46.1459460000       31.4593500000
  H        30.4641220000       45.6631300000       53.1399450000
  H        31.2738750000       45.7919430000       33.8454600000
  H        30.4522490000       40.4266890000       52.9627330000
  H        30.9738570000       41.6482010000       52.0452470000
  H        31.1276080000       36.1944290000       41.9789340000
  H        31.6459590000       55.9889980000       39.7842220000
  H        30.6576470000       37.1982330000       48.2639370000
  H        30.8530310000       55.7854460000       49.4442170000
  H        30.7275110000       45.7779940000       44.2512360000
  H        30.6009380000       39.4241050000       55.0395320000
  H        31.3074330000       39.3073410000       37.2594110000
  H        30.1512510000       45.0696750000       48.1472770000
  H        30.0620490000       53.2712850000       41.8730650000
  H        29.9073200000       33.1738310000       42.5618730000
  H        30.4807460000       46.5888900000       51.4731420000
  H        28.7498740000       38.0297540000       47.0331500000
  H        30.1568630000       48.1549860000       39.3281610000
  H        30.1295240000       47.1674110000       58.3602520000
  H        31.0285460000       43.7806580000       44.3977320000
  H        29.3273620000       42.1858880000       53.5728230000
  H        30.6241520000       42.4639700000       37.8807320000
  H        30.8875550000       52.2815740000       48.0249290000
  H        29.9669970000       41.0300590000       39.2793290000
  H        31.9362450000       40.4599600000       56.5860570000
  H        30.1822920000       33.4098200000       47.6245080000
  H        30.6868450000       44.9259200000       51.2535150000
  H        29.7377610000       43.4833330000       54.2127170000
  H        30.8349900000       43.4194880000       36.5460710000
  H        30.5916080000       44.1774980000       42.8770290000
  H        27.9605740000       50.4706510000       49.3962080000
  H        30.3714180000       55.6328000000       41.3009430000
  H        28.3535520000       39.2175220000       45.0917830000
  H        30.4543460000       35.5056570000       43.9206400000
  H        30.6358630000       48.3436900000       41.8721610000
  H        28.9336400000       52.5257690000       53.7904240000
  H        31.9609860000       34.7321030000       57.0312690000
  H        30.1003740000       50.8958730000       41.8785320000
  H        28.6066730000       45.6103350000       39.7124500000
  H        29.1196710000       42.4102920000       56.1824010000
  H        28.8069760000       49.5418910000       44.7654220000
  H        28.8645330000       38.2005770000       49.8908840000
  H        29.7396430000       37.9049980000       42.2999230000
  H        28.7075760000       43.4445110000       49.3988050000
  H        32.5908140000       55.3668080000       38.2083690000
  H        28.7840600000       37.6745630000       40.5839880000
  H        30.2643010000       46.4626930000       47.4028020000
  H        27.8965090000       48.6543010000       43.7644270000
  H        28.5612100000       38.7686320000       42.7716250000
  H        28.8138850000       40.4083370000       44.0878470000
  H        27.6771430000       50.2765210000       52.7522740000
  H        28.6998410000       38.8077890000       54.0338380000
  H        29.5470910000       52.2298980000       48.8765900000
  H        29.1442060000       33.8715610000       48.7176640000
  H        29.3357950000       40.1128540000       41.3485390000
  H        29.2615770000       55.3616340000       42.3573820000
  H        29.3560300000       34.9325120000       45.0528050000
  H        28.8351590000       49.4684220000       40.3561210000
  H        27.9719600000       44.9523140000       40.8802340000
  H        29.6735710000       41.3879030000       57.3190000000
  H        27.8286080000       51.3651990000       50.5862600000
  H        28.0256080000       39.1384890000       47.8515050000
  H        29.2491620000       42.6124250000       43.7502800000
  H        27.9460770000       36.1829600000       51.6096590000
  H        28.4123140000       39.7489280000       50.1915320000
  H        28.8275140000       41.5861760000       41.2919400000
  H        27.1067580000       51.7338350000       52.7936500000
  H        27.2098060000       47.6833320000       52.7447780000
  H        29.4808150000       44.7520100000       37.7797560000
  H        28.1904110000       37.4952630000       52.4288570000
  H        29.2871810000       49.8120890000       42.6207290000
  H        28.7316330000       40.9642960000       51.7294750000
  H        27.3055800000       48.1166710000       50.0055190000
  H        27.7104010000       46.8853590000       42.3454380000
  H        28.9952380000       46.3653650000       45.1542830000
  H        27.2257490000       38.9790910000       54.3557600000
  H        27.7542530000       48.6687410000       39.4747710000
  H        28.3075810000       48.0411970000       53.8591390000
  H        27.4489330000       46.4617490000       43.8782810000
  H        28.0902840000       42.4515070000       44.8802290000
  H        28.8769590000       48.5714140000       47.0638220000
  H        27.3200190000       48.4952010000       47.1066310000
  H        27.4211880000       42.5026810000       42.4827410000
  H        28.9482030000       46.0783750000       37.3045600000
  H        27.4469180000       42.6626300000       50.6385920000
  H        27.9902920000       43.3393430000       46.9828390000
  H        27.4160970000       45.3952590000       52.8738540000
  H        27.3153680000       40.3014320000       51.8646830000
  H        27.7294680000       44.4527660000       45.9966540000
  H        28.1674150000       48.6103310000       51.2037350000
  H        27.9324390000       46.6183720000       46.2452540000
  H        26.5163380000       42.3032120000       41.1912000000
  H        28.3429500000       45.7096380000       51.6733090000
  H        27.2470730000       44.1718100000       50.8547430000
  O        45.9475710000       54.5900320000       40.8136830000
  O        44.8982580000       32.1860740000       41.7717420000
  O        46.2662570000       47.8891720000       46.2032650000
  O        45.8677460000       45.4819890000       29.1159270000
  O        45.4945760000       61.8148880000       53.3581590000
  O        42.9758250000       51.5139030000       47.0241200000
  O        44.5942070000       49.3718240000       29.1641440000
  O        42.4302050000       51.9247340000       52.2570210000
  O        43.6255020000       53.7092340000       31.1976780000
  O        43.9770010000       33.1733380000       52.3879460000
  O        44.6045680000       33.6636150000       37.4976810000
  O        45.1263150000       28.6857330000       54.8022840000
  O        43.3388320000       40.4005620000       44.1529360000
  O        45.3083110000       38.5781000000       27.8635380000
  O        45.0538090000       56.3378640000       49.0723580000
  O        45.2769170000       55.7379140000       26.8607130000
  O        44.3945850000       35.8851030000       44.9352000000
  O        45.6658000000       36.0563220000       29.0925200000
  O        43.8465050000       46.2409850000       42.8629840000
  O        42.5213900000       43.7186720000       26.7262010000
  O        44.6167880000       61.6421600000       48.6080770000
  O        45.8782720000       52.3253950000       37.2317110000
  O        45.3157690000       49.1262900000       58.7738380000
  O        46.3812890000       30.4920950000       39.8421830000
  O        45.0721840000       32.3653700000       59.2802050000
  O        40.8935050000       40.2165320000       51.9623770000
  O        43.3303060000       36.6173100000       32.1974550000
  O        44.6459100000       53.3478070000       51.9956110000
  O        43.1852970000       57.5666250000       30.4570370000
  O        46.4132770000       39.8766810000       37.0681910000
  O        46.7443360000       56.9352220000       43.1903330000
  O        47.0563280000       56.3812580000       39.2905820000
  O        44.7405830000       52.5728440000       61.5332470000
  O        43.0601430000       39.7409430000       38.9210960000
  O        45.7994070000       36.4426570000       61.8467700000
  O        46.7007750000       45.7083210000       40.2498780000
  O        44.9500020000       41.2124350000       26.7720770000
  O        45.6420430000       62.2077330000       45.5527980000
  O        45.9553840000       46.1486390000       49.7388170000
  O        44.7182540000       45.4137190000       33.6734940000
  O        44.2168070000       59.6803870000       54.1170560000
  O        44.7510010000       63.0589130000       37.1311880000
  O        47.9725530000       49.4171800000       37.2975090000
  O        46.2805560000       44.2558710000       63.4644930000
  O        45.2830180000       28.4296920000       42.8614870000
  O        45.7512750000       43.2980570000       35.8695880000
  O        46.1347430000       40.9891010000       57.3102570000
  O        44.1340790000       62.0778960000       40.9237110000
  O        46.5472450000       52.4116710000       42.5340050000
  O        45.5475270000       51.5934890000       27.6407220000
  O        46.3512970000       29.6449190000       51.2350670000
  O        46.2487810000       51.4647290000       39.8628950000
  O        46.1260990000       46.8301520000       64.4520460000
  O        45.1725280000       31.0891230000       44.1487300000
  O        46.7635530000       45.3335380000       45.4169520000
  O        45.7032590000       42.2244490000       29.3085680000
  O        46.5886570000       61.1082660000       51.0254670000
  O        45.3529620000       48.3735610000       31.5768840000
  O        46.3566990000       47.6029890000       42.2193600000
  O        44.6056130000       45.8962940000       26.6268180000
  O        47.1299240000       56.8377610000       34.7600570000
  O        45.2425330000       53.5865480000       55.7484480000
  O        49.7834980000       34.1002810000       37.4207190000
  O        45.1174490000       36.0497650000       56.0118980000
  O        46.4655350000       29.2879400000       47.2316860000
  O        45.9772860000       52.1288930000       47.0184730000
  O        47.9985450000       49.6144780000       29.6885220000
  O        47.6482720000       29.9529490000       55.0145220000
  O        44.9876060000       29.9421990000       34.6390000000
  O        44.1050680000       44.0890000000       40.8511440000
  O        47.1106740000       41.2024350000       59.6410460000
  O        45.8177890000       62.8499940000       42.7356390000
  O        44.8116270000       44.8905930000       47.4395000000
  O        45.2887670000       40.9318640000       32.9357290000
  O        46.1945410000       58.2330990000       53.2408850000
  O        46.3200780000       59.7614670000       34.5371960000
  O        45.0980240000       41.8337740000       47.7175280000
  O        47.5133980000       36.6218050000       33.3628820000
  O        47.2140460000       56.8515490000       50.8940750000
  O        48.1665510000       59.7149640000       32.2389670000
  O        47.4366440000       52.5012040000       31.5712140000
  O        46.5599220000       50.3047720000       53.7799750000
  O        47.3257770000       27.9291610000       39.1547520000
  O        45.7598720000       31.7763880000       56.5124030000
  O        46.4235960000       53.3377650000       49.8353440000
  O        48.8560090000       56.6730680000       28.3757170000
  O        46.6095820000       33.7458290000       51.0453970000
  O        48.1500160000       34.0580400000       32.5524510000
  O        47.0322650000       53.2402880000       53.7959930000
  O        45.6811070000       56.7527590000       31.9433690000
  O        45.4519420000       33.7475110000       54.6996010000
  O        46.6669110000       31.0061400000       37.2155720000
  O        47.7859970000       43.4563550000       33.5343850000
  O        48.5572270000       40.3202120000       55.8864830000
  O        46.1560420000       62.0799720000       39.1111000000
  O        47.9480340000       56.6518570000       57.1985320000
  O        47.3552540000       39.9576910000       34.4154380000
  O        47.5969220000       38.3546450000       59.4874300000
  O        47.3505940000       58.6695420000       40.9347610000
  O        47.5720690000       53.9896450000       45.7239560000
  O        44.8155180000       53.7673210000       28.9604670000
  O        49.7153720000       52.0254140000       38.5810310000
  O        49.4727740000       51.8892310000       63.4602020000
  O        44.5052520000       35.2859080000       41.6947200000
  O        47.9903300000       31.3502490000       52.5823040000
  O        46.0026150000       32.3906990000       33.8839780000
  O        48.0559450000       54.0905510000       35.0421160000
  O        48.1584370000       49.0444290000       58.5894930000
  O        50.6578100000       57.1385190000       39.7668390000
  O        47.6634310000       55.0479620000       26.5674240000
  O        47.1424720000       35.5668060000       43.8199040000
  O        48.5734860000       30.5579250000       41.5317840000
  O        49.1322420000       55.1387810000       37.5926880000
  O        47.3627280000       52.6853300000       61.6005240000
  O        48.3700630000       36.0330670000       38.5646940000
  O        48.1093670000       35.5055830000       60.3741450000
  O        51.1607980000       50.4311170000       40.5299460000
  O        48.4962670000       52.2651270000       26.8550300000
  O        46.9935980000       31.0841730000       49.1549780000
  O        46.2654280000       40.0322470000       45.5609030000
  O        47.6401270000       37.5291630000       30.5505170000
  O        47.2490280000       59.1100550000       48.0034310000
  O        47.2182720000       45.2374020000       37.5247230000
  O        47.2539930000       43.6711340000       60.7651360000
  O        48.2423550000       63.9890790000       42.2122680000
  O        47.9143580000       41.1851870000       39.1693390000
  O        49.0297060000       57.9406070000       46.1812820000
  O        44.9795760000       50.4869450000       43.5676360000
  O        49.1134350000       47.6589590000       27.8086970000
  O        47.3988630000       27.3939050000       51.5956860000
  O        48.3813130000       42.1337590000       36.4102570000
  O        48.0342200000       40.0210210000       63.0867300000
  O        47.1636880000       59.4644610000       44.4343020000
  O        48.6047270000       46.0903520000       34.9333840000
  O        47.4031410000       44.0783840000       57.9441020000
  O        48.9852130000       63.0466730000       39.7012710000
  O        46.7739470000       45.4831260000       52.3534770000
  O        47.7749800000       46.4036220000       32.3010290000
  O        47.9521190000       48.3844430000       44.1546640000
  O        48.2379600000       45.1681850000       26.5281260000
  O        48.5432180000       27.2818810000       48.6858650000
  O        49.0021100000       44.8324800000       47.3548010000
  O        47.7181570000       40.5117730000       30.8480480000
  O        48.9713420000       59.1671050000       50.1199510000
  O        51.5425010000       55.1646610000       36.2628680000
  O        48.7371300000       38.1644790000       36.1049240000
  O        47.4592330000       37.6501060000       55.8568710000
  O        51.2653460000       45.1418480000       41.4358830000
  O        48.2345480000       42.1511160000       26.7301330000
  O        47.5375510000       61.8579470000       47.2398620000
  O        48.3303420000       51.3691150000       35.7405050000
  O        50.1781400000       47.2695020000       59.0114210000
  O        48.0410990000       28.3300490000       43.2867660000
  O        46.2578580000       49.5482070000       48.0685670000
  O        48.7257590000       49.8851130000       32.4370950000
  O        51.1677630000       52.2246230000       36.1823820000
  O        48.4372800000       51.4871500000       59.4153790000
  O        49.0178700000       33.8163690000       41.3092480000
  O        47.2599940000       32.8898700000       60.7814910000
  O        51.3784130000       45.8862350000       33.3263150000
  O        49.1666680000       40.0740540000       52.9693890000
  O        48.9302570000       59.9380640000       38.7707930000
  O        48.4505920000       57.5941880000       54.6559670000
  O        47.3572720000       40.9643460000       49.3858460000
  O        49.3435550000       41.4349090000       32.8203690000
  O        50.3338940000       57.8014780000       51.9050220000
  O        48.0851100000       60.8373310000       36.3420760000
  O        49.9866080000       39.5870740000       38.4964300000
  O        48.8960920000       36.1003850000       57.8025570000
  O        50.4049870000       58.3985720000       37.0325120000
  O        49.4892530000       54.8504090000       60.9210220000
  O        48.6443370000       57.6675980000       30.8928990000
  O        48.7839890000       35.5652660000       51.2784180000
  O        51.6180360000       35.5637030000       36.4605270000
  O        51.4978030000       41.9266710000       41.3251390000
  O        49.6296940000       38.4844410000       28.1569460000
  O        48.5825550000       50.0994610000       40.7302330000
  O        49.9465960000       46.2272040000       61.5816930000
  O        48.7429500000       29.3045820000       45.7704590000
  O        48.8247230000       49.5339780000       52.2279870000
  O        49.5494000000       52.2883210000       33.4092850000
  O        50.3679810000       28.3643540000       40.1365880000
  O        49.6806450000       46.4701530000       43.2139060000
  O        48.4372930000       45.7167480000       29.9583590000
  O        48.3615150000       49.2087480000       49.3444590000
  O        51.1196890000       50.3062830000       30.0042480000
  O        49.1985350000       28.5984110000       53.0701920000
  O        49.2197200000       47.0389400000       38.5946290000
  O        50.0393210000       43.4810250000       61.0012630000
  O        48.9848090000       61.6622520000       43.7586710000
  O        48.1730580000       54.5807200000       43.1359360000
  O        49.0581160000       53.9162220000       29.8262460000
  O        51.9107090000       33.0252430000       49.2386450000
  O        51.8448610000       52.0606170000       42.4162930000
  O        50.2376040000       49.8923240000       26.1001730000
  O        47.6293950000       44.1150080000       42.7787350000
  O        49.5865580000       40.7639890000       29.1223870000
  O        50.2887980000       60.7056010000       46.1204580000
  O        49.3498700000       31.9337240000       45.8381700000
  O        50.5082220000       55.0278330000       42.0718420000
  O        49.5861970000       36.7671700000       41.9778630000
  O        49.5582120000       52.6257850000       55.0259040000
  O        48.8355870000       55.3645980000       32.1227500000
  O        48.3479500000       33.9088670000       55.3401140000
  O        50.1048890000       31.4877160000       36.1164220000
  O        49.8909920000       48.8460890000       34.9103410000
  O        48.4663200000       47.0483540000       53.4675880000
  O        50.9130370000       41.5154130000       35.9490400000
  O        48.1921250000       37.1267240000       53.4323250000
  O        52.8144930000       59.9447960000       37.4033860000
  O        51.8255030000       54.7616920000       55.4047550000
  O        49.9872170000       37.5572500000       49.3960370000
  O        50.4809530000       36.9998170000       34.3429950000
  O        50.2695220000       55.7191820000       53.5704750000
  O        49.2591820000       58.4145060000       34.4896220000
  O        51.5983780000       54.0947860000       39.8364820000
  O        50.6251810000       52.0845570000       61.0816760000
  O        50.1730570000       32.5965770000       43.3368840000
  O        54.4475430000       54.1652320000       33.5658380000
  O        49.7932960000       53.3758160000       57.8760550000
  O        50.8854010000       32.6716940000       39.6943880000
  O        48.9276760000       33.2004040000       57.9582950000
  O        51.8244260000       46.9784960000       36.9731860000
  O        50.0487170000       42.8756770000       57.1038280000
  O        51.6883620000       60.2511700000       42.8427770000
  O        49.6726720000       47.0625820000       49.1025870000
  O        51.0316320000       47.7251090000       31.1632090000
  O        48.2137510000       54.1246160000       51.4967440000
  O        51.6814670000       53.4461260000       32.2893320000
  O        49.6946750000       33.5010710000       52.8184250000
  O        52.2007020000       33.1200660000       35.5655900000
  O        49.0613890000       43.2840200000       40.4716870000
  O        50.9819650000       56.2951480000       44.7362700000
  O        49.1584590000       39.6015180000       47.5458400000
  O        50.4324900000       35.3244270000       31.9396450000
  O        50.5556390000       54.2066460000       49.1783030000
  O        51.3581860000       57.3831530000       30.4708020000
  O        50.9288640000       44.1666610000       38.4210510000
  O        50.7143150000       40.8897760000       61.9747630000
  O        53.0463450000       58.0225540000       44.4622000000
  O        50.3354320000       49.8126420000       46.6063290000
  O        52.8012340000       47.5505110000       28.8959310000
  O        50.0937620000       30.4940670000       50.0028690000
  O        50.7024980000       44.7916810000       35.8607480000
  O        51.6633290000       40.0164880000       58.7274920000
  O        49.8368630000       58.3527890000       42.5126810000
  O        53.3637740000       51.4910690000       33.0952560000
  O        50.5664750000       49.0001840000       54.6665100000
  O        51.7387550000       30.1976310000       38.5386970000
  O        51.6914510000       33.2484280000       58.4106270000
  O        50.0227880000       50.1770320000       43.9031730000
  O        51.9489570000       45.2610600000       27.5425450000
  O        50.7757570000       29.0179080000       47.6197670000
  O        53.0971580000       49.9785940000       35.9036720000
  O        49.1414640000       45.8515520000       55.6961170000
  O        50.5635160000       27.7269400000       42.7738830000
  O        49.5901820000       52.4287240000       47.0860640000
  O        51.5236510000       53.1805220000       28.8315450000
  O        51.8213050000       35.7156160000       49.0323380000
  O        52.8112330000       33.3519090000       32.8251920000
  O        50.5692030000       46.5079720000       45.7099040000
  O        51.8569630000       41.8206720000       30.2246520000
  O        51.4577550000       59.2509420000       48.7910070000
  O        52.9285970000       50.9715220000       38.5423010000
  O        52.5755640000       46.9331890000       60.2799110000
  O        51.5164380000       30.3432500000       42.8518220000
  O        54.0980150000       55.6934280000       37.6338280000
  O        52.8736250000       50.4371800000       60.3120280000
  O        51.4286410000       37.6012590000       40.4619300000
  O        53.3480700000       47.2807910000       44.5277390000
  O        51.2472040000       44.6196410000       30.1565170000
  O        54.2606050000       46.5406700000       38.1570320000
  O        51.9664570000       44.3553050000       59.2163150000
  O        52.2697860000       49.9841420000       27.4776690000
  O        51.9955430000       32.4323790000       46.4195040000
  O        49.7156820000       42.6042030000       49.3871200000
  O        50.1743200000       37.5630640000       30.7564200000
  O        51.9556690000       56.4673820000       49.1275490000
  O        51.1530470000       41.8149120000       52.1292430000
  O        51.6542140000       43.0144380000       32.7062040000
  O        50.5164560000       59.2530350000       55.1492240000
  O        52.4160710000       41.3105590000       38.8390600000
  O        51.1720230000       37.2247010000       61.0636670000
  O        53.3052970000       57.6557980000       41.0965320000
  O        51.1713140000       46.1960160000       52.7599450000
  O        53.9643790000       45.9563190000       34.3062630000
  O        53.7730860000       45.3135370000       31.5720150000
  O        53.9700120000       44.5205310000       43.3005600000
  O        53.0357020000       60.3796200000       45.5995640000
  O        51.4016060000       48.1126560000       50.6308140000
  O        53.5383800000       48.6431360000       32.3999760000
  O        51.6637570000       30.0172370000       52.0964810000
  O        53.1227750000       42.5023100000       35.2233230000
  O        52.7598450000       40.4401540000       56.4365870000
  O        51.3098290000       61.0720070000       39.2973780000
  O        51.0110610000       53.6050200000       45.0047660000
  O        54.0527120000       36.7271430000       46.9920380000
  O        51.2515370000       37.5360020000       52.6901260000
  O        51.3344460000       39.1706940000       33.0116910000
  O        50.9022480000       56.3482990000       33.8905870000
  O        52.0319730000       48.5570200000       42.5683680000
  O        52.4765690000       30.1143920000       45.8568310000
  O        51.6586120000       39.8265410000       46.7168210000
  O        52.4582470000       39.9440750000       42.6936870000
  O        53.9747490000       56.6613920000       47.6242450000
  O        54.2588960000       53.0461220000       36.1187060000
  O        53.0143270000       51.3305210000       57.5866740000
  O        52.9272210000       35.7425560000       38.7025210000
  O        51.4232840000       35.8228640000       58.6333860000
  O        55.1887520000       44.4850790000       36.1825640000
  O        53.8316650000       42.3169860000       59.1987030000
  O        53.8151340000       49.6457810000       49.4927280000
  O        54.6930710000       51.4511190000       30.6088840000
  O        52.3093710000       32.4689700000       52.1510250000
  O        54.6708070000       50.8159680000       43.1445150000
  O        53.0494460000       33.6788710000       44.0237130000
  O        56.1064990000       50.9167290000       36.5253040000
  O        52.2142740000       46.8935580000       55.9404520000
  O        54.4829610000       31.1204330000       38.6109590000
  O        56.3235620000       40.8840570000       39.4492990000
  O        52.7308630000       39.3716980000       61.3485450000
  O        55.7237450000       57.9382550000       43.5130450000
  O        58.3092430000       52.9321340000       36.4513740000
  O        52.6661330000       51.0885430000       54.6627400000
  O        53.8591180000       33.3252630000       37.3926050000
  O        53.2215380000       33.8501470000       55.9642990000
  O        52.7815520000       51.2803070000       46.1432050000
  O        55.1374010000       48.9130980000       29.7785820000
  O        53.7793320000       28.9609180000       50.4155000000
  O        55.8399700000       48.8343180000       38.2148510000
  O        53.4413300000       45.6105150000       46.6704950000
  O        54.3567720000       41.4277240000       29.3839380000
  O        54.2384770000       59.7030820000       48.0066740000
  O        53.0586510000       52.5840540000       49.0668560000
  O        52.7509500000       55.1736920000       30.5968920000
  O        54.1443420000       31.4098220000       49.1315100000
  O        54.8937840000       38.2348020000       39.7722170000
  O        53.8143840000       36.2849890000       57.1911800000
  O        54.9154660000       58.3678920000       36.8460480000
  O        53.3322120000       38.1693630000       55.1576730000
  O        54.3194670000       39.1796490000       35.6359920000
  O        52.8235310000       57.2964320000       55.4100080000
  O        56.8752740000       58.3518800000       34.7657190000
  O        53.2775420000       44.6761690000       39.8023210000
  O        43.0597090000       40.9208410000       34.8331840000
  O        45.0273730000       38.6511410000       58.4089130000
  O        44.6446610000       58.7757830000       40.7575340000
  O        45.3501530000       55.8656310000       57.4745020000
  O        44.5555220000       53.7450930000       45.2930640000
  O        41.2109470000       55.5415620000       30.6486090000
  O        42.3550400000       35.1698690000       50.2168260000
  O        43.3904710000       33.0499480000       32.7426220000
  O        44.3990930000       41.2815690000       40.7547560000
  O        44.0332760000       39.7746400000       63.8364250000
  O        45.1459070000       59.7274360000       46.4552720000
  O        45.9787250000       47.2011630000       35.3155600000
  O        43.6544370000       42.7059760000       55.3050330000
  O        42.3388260000       63.7858380000       39.0222970000
  O        44.0951150000       35.1140090000       47.6924370000
  O        43.6789390000       34.4926450000       30.3613980000
  O        46.3902800000       56.5061110000       46.1383790000
  O        44.3854590000       57.8885860000       28.1705820000
  O        46.7182180000       34.0432510000       35.9304760000
  O        43.1531220000       37.4222750000       55.1386420000
  O        44.0717360000       57.8299890000       36.0480480000
  O        42.8696470000       53.4504560000       54.8499130000
  O        44.5546240000       49.5728440000       41.0480130000
  O        42.8031230000       51.0691310000       27.4107530000
  O        44.5411210000       32.1562020000       48.4307690000
  O        45.6228920000       54.2450680000       32.7301060000
  O        44.7300200000       51.4639790000       57.7548790000
  O        45.5047980000       35.7666330000       39.2850820000
  O        43.9845520000       34.8630440000       58.1529900000
  O        43.6586270000       41.8561960000       37.3026920000
  O        44.9122090000       39.8555830000       61.0676120000
  O        41.5229280000       60.5875800000       41.9336870000
  O        42.5866830000       38.4329070000       34.7674190000
  O        43.0463690000       40.0045880000       56.3680390000
  O        43.4144060000       61.0904620000       35.6698200000
  O        43.6030930000       57.7253250000       56.3841320000
  O        45.8686010000       48.6962420000       38.8007060000
  O        44.4401540000       42.3649400000       62.8330300000
  O        43.4879570000       50.0203540000       53.8414830000
  O        43.6880390000       51.0638550000       31.6106430000
  O        43.3481440000       30.8673590000       55.3862750000
  O        43.0268120000       27.8720780000       38.3611750000
  O        43.7996990000       27.4176630000       45.1808100000
  O        41.5119550000       46.8685540000       47.7090500000
  O        43.4119020000       45.5967950000       31.1400860000
  O        43.8287170000       48.5724310000       45.3060080000
  O        42.8977060000       48.1503300000       27.2858050000
  O        43.7663690000       28.9659850000       52.3422180000
  O        42.4882140000       45.1800090000       45.5133750000
  O        41.8688950000       47.2688840000       29.8076970000
  O        44.2858970000       27.0534260000       50.2948560000
  O        42.0320440000       43.1320550000       33.6535400000
  O        43.2316250000       41.7126370000       59.4632310000
  O        43.3496040000       59.9957440000       38.5260580000
  O        42.8504790000       57.2604590000       59.4867070000
  O        45.2037050000       54.5524480000       35.9294130000
  O        44.0359980000       49.9758020000       60.8913750000
  O        42.4375100000       33.5596170000       41.1743100000
  O        44.3371280000       56.4998560000       38.5535000000
  O        44.1902090000       53.8731680000       59.1378810000
  O        44.7995180000       36.4602860000       34.4664080000
  O        43.8803740000       36.7621140000       59.7477440000
  O        43.1757910000       42.8345670000       45.7367260000
  O        42.9348230000       41.3715020000       30.5227510000
  O        44.5373370000       59.4917130000       50.2562540000
  O        42.3797990000       52.8484810000       39.5196820000
  O        44.3024540000       48.2990050000       62.8996810000
  O        43.4735600000       32.1096640000       45.8793670000
  O        41.2911270000       35.5559120000       46.8631740000
  O        44.7088950000       38.9387190000       31.0156690000
  O        43.1252620000       55.7707480000       52.3436500000
  O        42.1728850000       59.5259390000       32.1232170000
  O        45.9181850000       50.3811350000       33.2079730000
  O        43.5878510000       47.6446610000       57.6449160000
  O        43.4463210000       28.1378250000       40.8181950000
  O        41.4790570000       50.6178290000       41.3740310000
  O        39.6647710000       47.1442970000       28.2625900000
  O        43.6693590000       29.6028570000       46.6024930000
  O        38.1096900000       43.4894290000       43.7355640000
  O        42.3365790000       40.2946510000       27.7531980000
  O        42.1582120000       59.1959650000       46.7102330000
  O        42.2200890000       44.0377290000       48.5570650000
  O        42.1984490000       43.7197440000       29.7447080000
  O        42.9751390000       58.5897930000       52.1177390000
  O        41.2813250000       60.9601800000       34.2184470000
  O        42.9125820000       48.3770750000       35.7741890000
  O        43.7476320000       44.0921070000       57.5253420000
  O        41.1410370000       26.7187030000       42.1989210000
  O        39.8193210000       53.2211050000       52.5383540000
  O        41.7156060000       58.2438940000       34.3918380000
  O        41.2399970000       33.6221310000       54.3029740000
  O        41.5280560000       32.2183650000       35.6442650000
  O        42.0459350000       50.7066600000       50.0464940000
  O        42.8275010000       48.3871300000       33.2334200000
  O        41.1458360000       28.4063160000       55.7197640000
  O        40.6979080000       28.8391520000       37.6197820000
  O        44.1848310000       46.7256000000       37.5237560000
  O        40.5501780000       44.8297910000       63.1456760000
  O        40.9712310000       26.1836070000       44.7756070000
  O        40.6760370000       49.4622340000       47.7334900000
  O        40.5610940000       53.8770580000       32.7315380000
  O        42.5368660000       52.4984730000       35.2148920000
  O        42.3980300000       51.3769300000       56.2438280000
  O        39.0148920000       38.0145500000       47.4889800000
  O        40.6769740000       35.8526170000       32.7553790000
  O        41.2776420000       54.9838540000       50.1494600000
  O        40.0283070000       60.6776890000       30.9449990000
  O        43.9503470000       30.4067730000       38.0462050000
  O        41.5518080000       33.9203180000       57.0239280000
  O        42.1964610000       31.1847370000       52.3121150000
  O        42.2141140000       29.6323390000       35.1328090000
  O        41.2122830000       43.3973070000       43.8001730000
  O        42.2152630000       38.6746870000       29.7722950000
  O        42.7598880000       57.8222020000       48.9550070000
  O        44.4265240000       55.8974040000       42.3859960000
  O        39.1703820000       36.2145010000       43.1704710000
  O        43.5996300000       56.3569690000       46.2245950000
  O        39.1880290000       57.8965310000       29.7792740000
  O        39.6816270000       36.3948900000       49.7672220000
  O        39.9093020000       33.1879040000       32.9064810000
  O        42.8289670000       52.3142390000       43.9893450000
  O        41.1575900000       53.0736320000       28.5228740000
  O        42.2492240000       32.3892160000       49.7300370000
  O        41.6387430000       31.0862400000       32.5128800000
  O        42.1831020000       35.9138200000       35.9726500000
  O        40.7029740000       36.4884690000       54.7975100000
  O        40.3511850000       54.6004000000       36.2808600000
  O        41.4556160000       55.8041430000       55.4944100000
  O        44.6096870000       50.6415770000       35.4600270000
  O        41.4775850000       47.2575670000       62.4299850000
  O        38.8337200000       46.7672690000       47.0609800000
  O        40.4238290000       44.6776900000       31.3482580000
  O        42.0941600000       62.7644400000       50.7224190000
  O        40.3332200000       32.0123480000       44.9272970000
  O        39.8885400000       49.4953840000       34.9292060000
  O        38.9341890000       48.0563250000       55.2463480000
  O        40.5604370000       46.7602460000       34.3820150000
  O        40.6965020000       43.4476340000       55.0476910000
  O        41.1673060000       61.4631630000       39.3609640000
  O        42.0443320000       45.3233590000       39.4529870000
  O        41.6078670000       42.5470230000       62.6137160000
  O        41.6395750000       61.0911370000       44.5566410000
  O        42.8673880000       54.4179710000       37.2322730000
  O        42.0805730000       48.2725550000       59.8808500000
  O        40.7237330000       31.8092550000       42.0818630000
  O        42.0732870000       32.9056900000       60.2344270000
  O        42.5310640000       47.6377980000       40.9017840000
  O        39.2604280000       44.4641630000       27.4506610000
  O        42.3682180000       62.0497520000       46.9766560000
  O        40.6098470000       50.3552920000       44.1816910000
  O        39.1381000000       50.4467190000       27.9224330000
  O        40.1661500000       30.4559410000       48.6487830000
  O        40.8187250000       43.9553920000       41.3372550000
  O        41.3981620000       40.0495150000       63.5495160000
  O        39.8209340000       58.5627210000       45.6047360000
  O        41.1341240000       40.4757070000       45.7571780000
  O        39.9742590000       37.2681980000       30.4834590000
  O        40.0424760000       55.0137180000       47.6316690000
  O        41.1622630000       35.9907740000       41.6014510000
  O        43.0782140000       58.4335710000       44.1390660000
  O        41.2437270000       56.1936100000       40.0455300000
  O        41.5402140000       54.4093870000       59.5030250000
  O        44.0701040000       37.6607750000       38.0582970000
  O        41.3528180000       37.2351180000       60.9368050000
  O        40.7968930000       42.1591240000       37.4503990000
  O        40.4370370000       39.6447650000       57.3100630000
  O        39.8582350000       58.3802290000       37.6569840000
  O        39.8672590000       54.7072600000       57.2251410000
  O        39.2281880000       42.2994960000       52.7495790000
  O        40.9271320000       40.0180090000       31.9549240000
  O        39.9388350000       59.1642250000       54.6057850000
  O        38.6198300000       61.9616450000       35.5337210000
  O        42.7681610000       54.0764660000       42.0956950000
  O        39.5539590000       55.6357840000       53.4448710000
  O        39.2404170000       56.7663110000       34.5718230000
  O        39.4272740000       38.2556830000       53.1061980000
  O        39.0798830000       35.8749960000       34.8272420000
  O        38.0696420000       33.4220100000       45.9168520000
  O        41.2035230000       51.2739480000       32.9677760000
  O        40.5484620000       49.7427740000       53.8554870000
  O        41.2644690000       30.9972940000       39.0234840000
  O        39.3177480000       31.6825290000       56.2323620000
  O        39.4949720000       44.1735970000       34.8235810000
  O        39.1628200000       41.9765950000       56.9045060000
  O        38.7468160000       61.3076990000       38.1740750000
  O        40.0590050000       57.9891690000       59.2418780000
  O        37.8217760000       54.3488610000       37.8067620000
  O        39.2359700000       51.8901980000       56.2468360000
  O        41.9116330000       33.4986520000       38.6867780000
  O        39.9379960000       35.4910890000       59.2743800000
  O        39.1579880000       50.3039740000       49.9966790000
  O        40.5513030000       48.8303920000       31.9045490000
  O        40.3081790000       30.4293180000       54.0674150000
  O        40.1749840000       51.8060710000       37.0019580000
  O        38.0973810000       45.8397830000       62.1564370000
  O        39.9450370000       29.1451400000       44.8695070000
  O        38.6672670000       40.8592930000       47.8212030000
  O        37.4916210000       39.4313500000       34.2023840000
  O        39.3152200000       56.7129460000       51.0441580000
  O        37.7494230000       59.3973340000       31.9864230000
  O        40.4229980000       38.4893250000       38.9874280000
  O        41.1322440000       39.6424560000       59.7988490000
  O        41.0450210000       57.4683310000       42.3990630000
  O        37.3990730000       45.9809100000       42.8405900000
  O        38.2958590000       42.6171330000       29.8351730000
  O        40.2725670000       62.1058600000       48.7444710000
  O        36.8141340000       44.9093980000       46.6890600000
  O        39.2850580000       42.1256330000       32.7429950000
  O        40.8869180000       60.2687150000       52.1274400000
  O        41.1776020000       53.3354090000       45.7092450000
  O        38.7173700000       53.6207410000       29.5065260000
  O        37.5802710000       37.0093780000       51.4847160000
  O        38.2641600000       32.7132980000       36.4086050000
  O        39.7867230000       45.9441120000       37.5928660000
  O        38.9742270000       42.7995520000       59.9438530000
  O        38.8939070000       60.7267200000       43.9271100000
  O        40.0908650000       47.2106100000       44.1341520000
  O        37.4609010000       47.1986940000       29.3711570000
  O        39.0430610000       29.9994070000       51.0242120000
  O        41.5524440000       49.3579150000       38.2103900000
  O        38.7789510000       44.9879840000       58.1196690000
  O        39.9263450000       29.2631120000       41.9818540000
  O        38.7085750000       52.4183760000       44.9605520000
  O        38.3137290000       50.5925530000       31.3844600000
  O        37.5251250000       32.8945490000       50.3763030000
  O        37.3403210000       54.5218220000       42.3242560000
  O        37.4000040000       38.5979540000       39.8932460000
  O        35.0140150000       46.8574690000       50.4281620000
  O        37.9087220000       46.1284340000       32.0894200000
  O        37.1537990000       41.6721740000       41.6974450000
  O        37.9741620000       59.5471550000       47.2240910000
  O        39.7300030000       53.2150780000       42.5177990000
  O        36.7403960000       49.8189200000       29.0781840000
  O        37.4443300000       31.3631690000       48.0730100000
  O        36.7216190000       47.5443920000       34.1105000000
  O        38.9292820000       45.4727190000       55.2432140000
  O        37.8360840000       45.4127300000       39.9799460000
  O        37.3619790000       61.6756160000       45.8874060000
  O        37.4212410000       42.4551760000       45.8664590000
  O        38.2566880000       39.8529310000       30.5227900000
  O        37.7792070000       40.2557520000       53.8003950000
  O        39.9502560000       39.8999080000       36.0049340000
  O        37.5243620000       55.7744070000       55.2756870000
  O        37.9477410000       59.4119960000       35.0897890000
  O        39.2987210000       59.2035870000       49.9036540000
  O        37.7672490000       57.0154490000       38.3723980000
  O        40.2583040000       37.6640260000       44.9312390000
  O        37.3873250000       36.9102610000       31.5706400000
  O        38.1718320000       37.4019320000       37.3478550000
  O        39.0327700000       37.3564670000       62.5215830000
  O        37.6623060000       56.2846730000       45.7582260000
  O        35.9067960000       58.2954920000       36.7220340000
  O        36.9853560000       53.2246380000       54.9387250000
  O        39.3349010000       34.8404460000       38.2145950000
  O        39.4637620000       37.1136450000       57.0168840000
  O        38.6543200000       41.0680730000       39.1243660000
  O        38.5694000000       40.0612500000       62.2644130000
  O        38.5228000000       57.9586280000       40.8496140000
  O        38.0135620000       52.3639740000       34.7388170000
  O        39.2271880000       47.8018090000       58.2083940000
  O        37.3091880000       29.0439570000       40.7801170000
  O        37.4135990000       50.9245370000       52.0506190000
  O        37.3685390000       54.1282460000       31.8583390000
  O        36.8209330000       35.4750230000       53.6161550000
  O        37.0359310000       31.3522380000       38.3139040000
  O        40.7833130000       55.9241090000       44.7844160000
  O        34.2130750000       55.6854250000       30.1827210000
  O        37.5204910000       35.9163000000       46.9840580000
  O        39.0230720000       48.0685510000       41.5419570000
  O        37.1225540000       28.5556640000       45.1523680000
  O        35.4749180000       54.6896730000       40.3809520000
  O        38.1037260000       51.8083550000       58.7530540000
  O        38.0046240000       34.9763320000       40.7202420000
  O        37.6796310000       35.4630370000       61.0859840000
  O        39.0407760000       52.3591710000       39.8244980000
  O        36.5733330000       49.6946110000       59.8500780000
  O        37.7171320000       42.4726230000       35.8142370000
  O        36.8857510000       43.5507000000       54.5835860000
  O        37.3868050000       60.3498100000       40.5301450000
  O        38.4571200000       33.3049340000       42.9553350000
  O        38.5887690000       39.0839860000       43.0644520000
  O        37.1953790000       57.0551750000       43.2625600000
  O        36.7218250000       49.1767940000       54.0521320000
  O        36.2698430000       49.9157970000       32.9398940000
  O        37.0608090000       33.2235830000       56.2126130000
  O        33.9444170000       29.4791380000       38.8594610000
  O        35.7638080000       39.1882260000       51.8241350000
  O        36.5530530000       35.2094190000       33.7075020000
  O        37.1835800000       54.9775190000       51.0196510000
  O        35.5019770000       58.2014250000       31.2171770000
  O        35.6619130000       49.9897400000       44.5043920000
  O        35.6107020000       43.0052820000       30.3422840000
  O        37.0287010000       43.7856070000       51.4586620000
  O        36.4060600000       40.1040990000       36.5685650000
  O        37.3582800000       58.4446100000       54.0701140000
  O        38.0492690000       49.7568670000       46.3491160000
  O        35.7082760000       45.6339440000       30.5842360000
  O        35.5233470000       53.9237610000       52.9068200000
  O        34.9684360000       56.1956640000       34.7289490000
  O        38.1153210000       52.9052610000       49.2709510000
  O        36.9899420000       56.4910160000       32.9920050000
  O        36.4957350000       35.7344940000       49.4461190000
  O        35.3382630000       33.4653860000       35.2828120000
  O        36.7880710000       36.8680170000       55.8451870000
  O        33.9284050000       34.0374520000       37.4661960000
  O        35.1197180000       43.0463570000       40.2297730000
  O        35.9227440000       39.8670820000       61.0868170000
  O        35.9567810000       60.6488150000       42.7283270000
  O        37.2673250000       48.4925240000       49.3099050000
  O        34.6644690000       43.0880210000       34.4740220000
  O        35.5818330000       45.7460570000       53.3361260000
  O        34.4007370000       46.7208020000       33.2529940000
  O        36.2056240000       52.9024360000       44.2973160000
  O        35.4796990000       34.3811280000       45.9398670000
  O        37.8685280000       50.1030470000       42.7319440000
  O        35.8539970000       29.2226020000       47.6498690000
  O        36.8518690000       50.1935970000       39.1330050000
  O        38.3704230000       48.7781680000       61.9757750000
  O        36.9492780000       31.0616880000       43.1166380000
  O        35.6097600000       39.6617570000       48.6303680000
  O        36.4245450000       41.8178260000       32.7018340000
  O        36.9760460000       59.5415900000       51.4790840000
  O        38.8440940000       48.3718570000       38.8815620000
  O        34.8277090000       61.0211280000       45.2714740000
  O        35.2837840000       40.0973880000       55.7425110000
  O        34.3708180000       38.5308890000       38.2931660000
  O        35.3549250000       58.4373210000       56.0706470000
  O        35.2739360000       59.9964000000       39.0997130000
  O        33.9116950000       36.0289980000       39.2510740000
  O        36.8210260000       38.2925910000       58.6845760000
  O        34.9443980000       55.6839150000       37.6510510000
  O        38.0513750000       57.4260010000       57.5301090000
  O        34.7369990000       51.5180310000       50.2407720000
  O        34.8771390000       53.1525150000       31.6128950000
  O        35.6239740000       31.7320700000       51.4977650000
  O        35.0782660000       41.8301060000       44.4446700000
  O        35.7619370000       39.3470410000       31.9228070000
  O        35.8006680000       57.6083400000       47.3076150000
  O        36.2173880000       46.4438890000       36.8039760000
  O        35.2835730000       45.5320120000       57.4863900000
  O        33.9267770000       49.6374470000       46.8411760000
  O        34.2833590000       50.3825080000       30.8934540000
  O        36.6233390000       28.7638930000       50.2133770000
  O        35.8010530000       53.6586340000       36.2140870000
  O        35.0569150000       50.4211570000       55.7225070000
  O        35.0756130000       32.5610080000       39.7288450000
  O        35.3532700000       35.0481530000       57.2289760000
  O        35.6573350000       39.4139730000       42.8283840000
  O        34.3861870000       57.1517280000       43.1405830000
  O        34.3631830000       49.4295170000       36.9933200000
  O        35.6070190000       48.3931900000       57.3907350000
  O        34.4191210000       28.9224980000       41.4989540000
  O        35.0692450000       51.4948570000       41.8346430000
  O        33.4782990000       30.3638010000       46.8269290000
  O        34.0167340000       49.3602990000       52.6768190000
  O        34.9624910000       52.1096320000       34.1164730000
  O        35.4367630000       32.7807390000       53.9004650000
  O        34.7501000000       31.0379130000       36.7921130000
  O        36.3911370000       44.1186480000       38.1381430000
  O        36.0890140000       42.7520990000       59.1644380000
  O        34.8748170000       52.5528880000       38.7903150000
  O        35.4064680000       52.5910850000       57.4378660000
  O        35.4207920000       34.7335220000       41.2892520000
  O        35.5713370000       36.0052760000       59.6003530000
  O        34.7861770000       37.9669500000       46.6963180000
  O        34.7534520000       54.6568700000       46.6272370000
  O        33.8758710000       36.1575830000       48.4394220000
  O        35.0669780000       55.4203950000       49.3111900000
  O        52.7299590000       42.8284100000       48.9876230000
  O        53.7622520000       40.0564470000       32.7897540000
  O        54.3319100000       57.3612590000       51.0036940000
  O        55.0548240000       48.6553700000       41.0063090000
  O        54.3058030000       30.8723940000       41.9370500000
  O        55.0048960000       49.4252850000       45.1462800000
  O        55.5495170000       31.9819520000       46.3695960000
  O        54.6458220000       53.2057980000       44.7821110000
  O        54.6455580000       35.8787330000       44.5384880000
  O        53.7629240000       45.1182990000       53.3397050000
  O        56.4178940000       47.3814280000       33.9103390000
  O        52.9000350000       42.6929100000       54.2868040000
  O        54.9290240000       42.4507090000       32.1039150000
  O        55.8150030000       43.6977480000       40.2486260000
  O        54.4862240000       41.4301470000       61.7901760000
  O        55.8140310000       61.0354550000       44.5330080000
  O        55.0292030000       51.3226280000       53.0430730000
  O        58.5404650000       57.2434850000       36.4301750000
  O        55.1059340000       53.0248450000       51.0616940000
  O        53.7520490000       57.0242350000       32.7717080000
  O        53.2277570000       37.1312480000       51.0249710000
  O        54.1891290000       36.1614330000       34.2138690000
  O        55.2460900000       36.2369350000       52.6755460000
  O        54.9017110000       36.4366740000       37.0048050000
  O        55.8143150000       46.4397160000       51.6156920000
  O        57.2954160000       47.8292570000       31.2496270000
  O        54.5963050000       40.6100540000       53.2153460000
  O        56.6447030000       40.7293320000       35.4968740000
  O        54.6132580000       44.7766140000       49.2405990000
  O        56.7332600000       45.1533490000       31.0665700000
  O        53.0089230000       40.1243940000       50.7047940000
  O        55.6374610000       37.9742750000       33.1911350000
  O        56.3465670000       55.7743570000       50.0747190000
  O        57.1482070000       50.0501540000       34.2208290000
  O        58.8722040000       38.6368620000       45.3653580000
  O        57.9104590000       58.0602450000       45.6904130000
  O        55.6591580000       51.8738430000       40.6875740000
  O        58.7662590000       42.5025390000       36.4023280000
  O        55.3845170000       40.9568130000       57.3833540000
  O        55.5301170000       33.6915260000       41.6615360000
  O        54.4458450000       54.5231600000       40.1241620000
  O        52.8991060000       34.3394730000       41.1000640000
  O        56.5984860000       48.2058710000       43.3731050000
  O        56.9243350000       51.8684000000       49.7645540000
  O        56.2799620000       37.9998680000       48.6954300000
  O        56.2469160000       49.6941120000       51.5044960000
  O        56.8789960000       52.2812110000       32.2764820000
  O        54.0713930000       33.8795800000       53.4374580000
  O        55.5936400000       34.0460000000       35.1276490000
  O        57.9462910000       50.2985710000       39.9869290000
  O        54.2251840000       47.2971500000       57.8416900000
  O        57.5158980000       40.0379620000       42.1447030000
  O        59.6946190000       57.7009990000       42.8049960000
  O        56.9993040000       57.3028060000       38.7919080000
  O        57.2942700000       36.9885890000       38.7198120000
  O        56.5921550000       37.1363840000       56.8964150000
  O        55.8447400000       55.2884520000       42.7500140000
  O        59.2094670000       38.7810660000       47.8569120000
  O        54.0288380000       37.8081010000       42.2627660000
  O        56.4198640000       56.0228470000       47.6542420000
  O        56.6928960000       42.5909740000       49.3088280000
  O        55.9103020000       38.3246220000       54.4822180000
  O        57.9595260000       38.7671710000       36.7217600000
  O        56.8263260000       44.5269800000       45.7227470000
  O        56.8039690000       45.7078000000       38.5537050000
  O        57.3380160000       42.9885590000       56.9030320000
  O        56.4887010000       50.3766660000       47.5796740000
  O        57.6554520000       32.2125710000       48.1264620000
  O        55.7341290000       41.9514770000       46.6944120000
  O        56.5250080000       60.4318300000       47.3319130000
  O        57.6503250000       44.4502440000       54.5534770000
  O        57.5510140000       44.6676790000       34.8084260000
  O        57.1476950000       53.7516880000       45.8851330000
  O        57.4357050000       36.1586240000       44.6878950000
  O        56.9867130000       47.5668650000       48.7988930000
  O        55.9688060000       33.1101870000       49.9804340000
  O        58.3951580000       47.4067370000       40.4832880000
  O        57.4848040000       45.4163110000       58.3560270000
  O        57.9649090000       48.0018510000       52.3655550000
  O        59.8968090000       48.9759420000       32.9802760000
  O        56.6424480000       45.3316060000       42.7754610000
  O        57.5623240000       34.3571220000       52.1067530000
  O        55.5779640000       43.2457560000       51.9809810000
  O        57.2761570000       41.9444390000       33.3007970000
  O        59.2645970000       43.3221480000       48.9866800000
  O        60.9519180000       38.2283360000       43.7213900000
  O        57.3391900000       58.5273450000       41.2394640000
  O        56.2419960000       40.1590730000       50.2837710000
  O        58.9409860000       54.9545930000       52.1984980000
  O        59.2276530000       47.1695390000       42.8896910000
  O        58.4439420000       47.2773510000       55.3033840000
  O        59.3016490000       47.5864560000       35.4595650000
  O        58.2959140000       54.7393450000       38.8405940000
  O        57.5245360000       35.5540810000       40.8352310000
  O        58.6443200000       41.2387360000       40.1807040000
  O        57.6981980000       39.4952830000       57.2272060000
  O        60.5485620000       48.9418030000       37.6901080000
  O        55.1015410000       49.8499430000       56.8739590000
  O        58.7932820000       50.7957460000       46.1232950000
  O        59.0535170000       52.5641620000       53.8815580000
  O        58.3443620000       35.4637290000       55.6051230000
  O        57.3902060000       35.6911180000       36.1264120000
  O        60.3933080000       32.3689070000       46.8562760000
  O        58.2650740000       40.1960500000       54.8092770000
  O        60.0790180000       40.2676390000       37.5355940000
  O        60.2896140000       37.2681830000       41.2270650000
  O        58.5084830000       53.5149620000       41.1867750000
  O        56.8768080000       37.5801880000       42.5651700000
  O        61.9230350000       36.0576760000       45.0702670000
  O        59.4501170000       55.0456570000       45.6039600000
  O        60.5639510000       36.5474100000       49.0543710000
  O        60.1734250000       54.5041500000       48.1636400000
  O        57.4126690000       40.8585920000       44.7208780000
  O        59.7596230000       47.4474920000       48.4094680000
  O        59.1922090000       45.2304730000       47.0862030000
  O        61.2004850000       52.4060910000       40.3013370000
  O        59.7335910000       42.1445000000       44.6994470000
  O        58.3874300000       43.8190920000       41.0266680000
  O        59.1166950000       45.3248980000       37.1435360000
  O        59.7293880000       42.8968050000       55.7936710000
  O        59.7252050000       50.2598040000       42.7418590000
  O        61.3486970000       43.9939410000       50.5911160000
  O        59.4023600000       53.0104680000       50.2380310000
  O        58.6307110000       36.8821460000       53.4097100000
  O        59.8291360000       35.0307450000       46.5154880000
  O        60.9196670000       39.0152990000       50.9147790000
  O        59.6863270000       51.5135240000       38.4253040000
  O        58.0266860000       39.2314110000       52.4208090000
  O        60.4142740000       44.8694990000       42.9639790000
  O        60.2010840000       45.3967870000       56.5223500000
  O        61.0399600000       44.0270420000       38.5358360000
  O        61.0378800000       46.3540500000       40.2081500000
  O        61.4461370000       41.0029800000       54.9506740000
  O        60.8344290000       40.5072710000       48.2920010000
  O        62.2416210000       45.3576220000       48.2205270000
  O        62.6681870000       48.6967980000       39.7349950000
  O        61.3841560000       49.4743900000       46.9511480000
  O        61.2437690000       41.4771840000       52.2710250000
  O        62.3717030000       48.3107620000       44.4685300000
  O        61.6598430000       42.5491690000       41.4506180000
  O        61.1217890000       45.9063350000       52.4788060000
  O        60.3770020000       47.9539780000       51.1159250000
  O        61.4546530000       44.6754460000       45.5203620000
  O        62.6445930000       40.6481790000       44.1024960000
  O        60.8335580000       50.6825960000       49.6368540000
  O        62.2230530000       41.6561740000       46.4447810000
  O        35.7491180000       47.6966230000       39.5584260000
  O        33.9689190000       38.8166400000       53.9179640000
  O        34.7258470000       37.4390580000       35.5803450000
  O        34.1150850000       56.8073130000       53.6150250000
  O        36.1331090000       51.4459910000       47.9992710000
  O        33.3934830000       33.9566440000       47.4466170000
  O        33.3761210000       41.1165250000       39.0209540000
  O        33.4230670000       41.4197060000       57.0459900000
  O        31.3395100000       48.6557620000       52.5186370000
  O        33.0256400000       48.1250550000       35.2012540000
  O        34.1621440000       43.9610120000       42.6479010000
  O        33.4634650000       59.2242150000       46.6823020000
  O        33.8692490000       44.3910560000       49.3558160000
  O        33.2281270000       44.0383840000       32.0219730000
  O        33.6393280000       44.0816440000       55.8947000000
  O        33.7544760000       45.2045750000       35.9467230000
  O        33.0039920000       37.5825400000       43.8108910000
  O        33.4520790000       55.1004550000       42.0989210000
  O        34.0193980000       41.7259710000       52.7986710000
  O        33.6206400000       40.9726880000       36.3174310000
  O        31.9666000000       37.4833300000       49.5752960000
  O        33.5409240000       39.6446250000       33.6038050000
  O        34.3217380000       58.2822330000       51.0003630000
  O        33.3519330000       49.2460270000       49.7838150000
  O        33.4763220000       32.2645610000       49.8267470000
  O        34.8265540000       46.8199340000       43.2133210000
  O        32.9265080000       43.9529750000       59.5451140000
  O        33.2975780000       45.2120740000       46.8146690000
  O        32.6846300000       52.7622100000       43.4491580000
  O        34.1404960000       35.2399410000       43.6869150000
  O        33.4123500000       49.1254950000       41.7005020000
  O        34.3469350000       30.9062200000       43.1971820000
  O        32.8255350000       40.5738180000       48.8583760000
  O        32.4689040000       59.7333950000       49.1762790000
  O        32.9863200000       53.7157070000       50.1205980000
  O        31.7432780000       33.1177190000       51.7624540000
  O        33.1021900000       46.1862350000       40.9560820000
  O        33.9867590000       46.3311980000       59.8955510000
  O        33.4797900000       47.4628350000       45.3901320000
  O        32.8880760000       49.6382550000       39.3300150000
  O        33.1983300000       48.5363090000       58.1607060000
  O        33.2188130000       39.2249730000       41.2138240000
  O        33.0834730000       37.8634860000       60.2484160000
  O        33.9350570000       58.3791350000       40.6683850000
  O        30.7573580000       48.1799120000       49.7464340000
  O        32.6259040000       48.3022280000       31.8516330000
  O        32.2394290000       41.4119940000       42.3670700000
  O        32.3200970000       57.8324840000       44.7665110000
  O        31.1583100000       35.9915610000       51.5814330000
  O        31.4735230000       37.9306170000       34.2172600000
  O        31.9776920000       55.7776740000       51.2124490000
  O        31.1727990000       38.0818520000       45.5320060000
  O        32.1633780000       55.1995360000       46.3454910000
  O        33.3942550000       52.0998320000       52.9864130000
  O        32.6200590000       50.6383450000       34.1737230000
  O        32.7219760000       33.2058500000       54.4774450000
  O        33.2835260000       44.2970980000       53.1798560000
  O        31.6447510000       42.7425980000       34.8784550000
  O        30.9893120000       44.0157930000       41.3227290000
  O        33.3581500000       40.9885210000       60.1370590000
  O        32.2089970000       52.2023030000       39.0828320000
  O        32.6494680000       51.0595600000       57.8686400000
  O        31.0510420000       35.1310970000       40.3378080000
  O        32.2077840000       49.8983250000       44.3154470000
  O        32.7354220000       32.9501360000       43.6427920000
  O        31.9068700000       36.9772790000       53.9629980000
  O        32.8205860000       35.4052100000       35.1762630000
  O        31.5861920000       55.0230270000       53.8238680000
  O        31.6280630000       37.7855410000       39.3273320000
  O        32.4442050000       37.8088920000       57.7766060000
  O        32.2887320000       45.3800900000       38.3166410000
  O        31.2178750000       44.0588940000       57.5138350000
  O        31.5424310000       51.0748200000       55.2990040000
  O        31.1686310000       52.1530250000       36.5446080000
  O        32.0670270000       52.0450270000       46.7658900000
  O        31.4861510000       32.8231650000       45.9174100000
  O        30.0934330000       49.5529710000       46.3172780000
  O        30.2539570000       40.5896570000       47.9448460000
  O        30.9597380000       51.6982460000       51.5824740000
  O        29.7619890000       32.4226650000       49.9090480000
  O        32.5596840000       43.4581630000       44.6718260000
  O        29.8595350000       47.7065520000       54.9434000000
  O        30.4192370000       47.5682010000       36.1420510000
  O        31.4440600000       43.7740280000       50.7131040000
  O        31.1246010000       46.1299300000       32.0340200000
  O        30.5087030000       46.8787120000       57.5225890000
  O        30.9991450000       47.9219060000       38.8040230000
  O        30.5452480000       46.8032170000       44.6175450000
  O        29.9102590000       36.9219260000       47.5989030000
  O        30.5714030000       55.6182850000       48.5258540000
  O        29.7852800000       52.9838640000       53.8059310000
  O        32.6002600000       34.9861580000       56.3331770000
  O        30.7967660000       36.6277100000       42.8183660000
  O        31.8057050000       56.6262620000       40.5245920000
  O        30.1874730000       39.0442070000       54.1196420000
  O        31.9061080000       38.7802130000       36.7088250000
  O        30.4277540000       40.9985450000       38.4185780000
  O        31.2074380000       39.8243630000       56.3805470000
  O        30.5986300000       52.4169880000       41.7060780000
  O        30.6169750000       32.8734080000       41.9876950000
  O        30.9177750000       45.0410190000       53.8754000000
  O        31.2990820000       45.4040770000       34.7366990000
  O        30.8098950000       47.3832240000       41.9028790000
  O        29.5152520000       43.4084560000       48.7567290000
  O        31.6636640000       55.1331560000       38.3891530000
  O        28.9434640000       36.9454340000       39.8783710000
  O        30.1767840000       41.2106160000       52.3694570000
  O        30.8163570000       45.8460150000       47.9695510000
  O        29.1223550000       42.7336180000       54.3945620000
  O        30.6502430000       43.3769940000       37.4968550000
  O        28.6598430000       45.6509660000       40.7512520000
  O        29.2200080000       42.2658630000       57.1845420000
  O        28.8997190000       39.3958680000       44.2943530000
  O        30.0601570000       45.7221760000       51.7087330000
  O        28.1542740000       38.8194860000       46.9396560000
  O        30.4119950000       44.3301360000       43.8518320000
  O        28.8401400000       39.1334180000       49.5293990000
  O        28.0636320000       51.4330690000       49.5909230000
  O        29.6426050000       54.9634180000       41.5670480000
  O        30.0745830000       34.6746700000       44.4321120000
  O        29.9467430000       49.8809180000       41.8466220000
  O        30.3461190000       52.7916050000       48.6635840000
  O        29.6776960000       34.1852700000       47.9839350000
  O        27.8586670000       51.2048710000       52.4200800000
  O        28.1786440000       49.6269130000       44.0047330000
  O        28.9927020000       38.4879660000       41.9160540000
  O        29.6212590000       40.9998830000       41.1154190000
  O        28.6617970000       48.5907130000       39.8995790000
  O        28.6157320000       36.9213800000       51.6876940000
  O        27.7808780000       38.5938710000       53.6882420000
  O        28.4194750000       42.0531950000       44.0014770000
  O        27.6228800000       48.4058150000       53.2739250000
  O        28.0981450000       47.9707580000       47.3966880000
  O        28.8214970000       45.4674450000       38.0527080000
  O        27.8166540000       40.8810380000       51.2715720000
  O        27.4038510000       47.1970970000       43.2246060000
  O        27.9785750000       48.7630210000       50.2394290000
  O        27.3482840000       42.7198920000       41.5037080000
  O        28.0628310000       46.0190650000       45.4793010000
  O        27.7294120000       43.4306830000       46.0329750000
  O        27.3303550000       43.5182430000       50.1135150000
  O        27.3987700000       45.8002930000       51.9763470000
